2
pbc=[T, T, T] config_type=high_entropy dft_energy=-4.82674708 Lattice="6.11837900 0.00000000 0.00000000 0.34803700 5.23331300 0.00000000 0.77558000 0.31913700 2.68754200" Properties=species:S:1:pos:R:3:velocities:R:3:dft_forces:R:3:Z:I:1
Al         5.30714843       6.73715519       2.44699550         0.00000000       0.00000000       0.00000000        -0.21374500       0.06492500       0.04872200         13
Al         1.58481001       3.69513139      -0.22612933         0.00000000       0.00000000       0.00000000         0.21374500      -0.06492500      -0.04872200         13
5
pbc=[T, T, T] config_type=high_entropy dft_energy=-12.75284779 Lattice="5.02089900 0.00000000 0.00000000 1.11704900 7.79801200 0.00000000 1.10064900 0.65271700 4.88294600" Properties=species:S:1:pos:R:3:velocities:R:3:dft_forces:R:3:Z:I:1
Al         2.06436547       3.51748640       1.33562541         0.00000000       0.00000000       0.00000000         0.07130200       0.00661700       0.06427500         13
Al         6.93989793       7.00047986       4.85332056         0.00000000       0.00000000       0.00000000         0.00596900       0.00366400       0.00343100         13
Al         4.57543555       5.31101509       3.14047063         0.00000000       0.00000000       0.00000000        -0.06506600       0.03501000      -0.06054500         13
Al         4.52326936       1.99588018       3.47841739         0.00000000       0.00000000       0.00000000        -0.07505100      -0.01110500      -0.06118300         13
Al         3.17172699       7.98883354       1.68382164         0.00000000       0.00000000       0.00000000         0.06284700      -0.03418600       0.05402200         13
2
pbc=[T, T, T] config_type=high_entropy dft_energy=7.01202564 Lattice="5.01127600 0.00000000 0.00000000 0.77473800 4.05787500 0.00000000 0.64755800 0.40248000 1.47775300" Properties=species:S:1:pos:R:3:velocities:R:3:dft_forces:R:3:Z:I:1
Al         1.31201422       1.48915569       1.61611915         0.00000000       0.00000000       0.00000000        -0.32945500       0.60618800      -0.02176100         13
Al         3.10630126       0.17449741       0.38673193         0.00000000       0.00000000       0.00000000         0.32945500      -0.60618800       0.02176100         13
20
pbc=[T, T, T] config_type=high_entropy dft_energy=-72.90483225 Lattice="7.11211400 0.00000000 0.00000000 1.28606900 7.48372000 0.00000000 0.01261800 3.11320700 6.46789100" Properties=species:S:1:pos:R:3:velocities:R:3:dft_forces:R:3:Z:I:1
Al         5.80777533       8.28284698       3.88486521         0.00000000       0.00000000       0.00000000         0.06570300      -0.09332900       0.02918700         13
Al         5.74486080       3.13306253       3.14263035         0.00000000       0.00000000       0.00000000         0.08299300       0.09857800      -0.09957500         13
Al         3.06724432       2.67297122       2.40636206         0.00000000       0.00000000       0.00000000         0.05362400      -0.01382500       0.00766200         13
Al         2.59055028       5.39532419       6.20378162         0.00000000       0.00000000       0.00000000        -0.01533500       0.02932500      -0.06836000         13
Al         1.85431689       4.94790196       3.68263638         0.00000000       0.00000000       0.00000000        -0.09433600       0.18851200       0.16223000         13
Al         1.54217177       2.69440837       6.90437930         0.00000000       0.00000000       0.00000000        -0.05501200       0.16766400      -0.12091400         13
Al         6.24588590       3.52413366       5.94930026         0.00000000       0.00000000       0.00000000         0.06627700       0.16567900      -0.17631800         13
Al         3.21195704       7.50402400       3.08330137         0.00000000       0.00000000       0.00000000         0.05462700      -0.10011900       0.10058600         13
Al         5.24214780       2.84474025       0.40503428         0.00000000       0.00000000       0.00000000         0.03470300      -0.02968600      -0.05622300         13
Al         1.07276499       7.37466464       4.90380510         0.00000000       0.00000000       0.00000000        -0.04399700      -0.05729300       0.03075700         13
Al         3.62186008       3.14321153       5.02305498         0.00000000       0.00000000       0.00000000        -0.00769300       0.02621900       0.07959500         13
Al         4.22654470       5.18298127       2.03317792         0.00000000       0.00000000       0.00000000         0.24345200       0.01497800       0.13398300         13
Al         7.69390647       6.95407126       2.17466567         0.00000000       0.00000000       0.00000000        -0.01054500      -0.14424100       0.02344100         13
Al         0.49775331       1.94403823       1.49566078         0.00000000       0.00000000       0.00000000        -0.06736900       0.04369800       0.06631600         13
Al         8.11543290       2.34876363       4.24404522         0.00000000       0.00000000       0.00000000        -0.18995100       0.06276300      -0.00671700         13
Al         5.31863733       7.86980714       1.23305930         0.00000000       0.00000000       0.00000000         0.07416500      -0.11313400       0.02612600         13
Al         1.59470401       4.57160822       1.06595922         0.00000000       0.00000000       0.00000000        -0.17034900       0.07150400      -0.07950400         13
Al         6.28546672       5.46987894       0.16628365         0.00000000       0.00000000       0.00000000         0.01791700      -0.09752600      -0.04697600         13
Al         6.11841486       5.62047980       4.14945093         0.00000000       0.00000000       0.00000000        -0.16337100      -0.16637300       0.04123900         13
Al         3.72778908       4.79796222      -0.74868957         0.00000000       0.00000000       0.00000000         0.12449800      -0.05339300      -0.04653400         13
3
pbc=[T, T, T] config_type=high_entropy dft_energy=-8.69723088 Lattice="12.64767800 0.00000000 0.00000000 1.64550400 3.34216000 0.00000000 0.14338000 1.04872500 2.61315400" Properties=species:S:1:pos:R:3:velocities:R:3:dft_forces:R:3:Z:I:1
Al         2.75421869      -0.80693600       0.78314707         0.00000000       0.00000000       0.00000000        -0.62278900       0.34527200      -0.10099500         13
Al        13.71531878       1.99789538       0.31376433         0.00000000       0.00000000       0.00000000        -0.00080200       0.01924700      -0.00157200         13
Al        12.01630122       4.87159566       0.80225212         0.00000000       0.00000000       0.00000000         0.62359200      -0.36451900       0.10256700         13
3
pbc=[T, T, T] config_type=high_entropy dft_energy=-9.09120871 Lattice="4.45145700 0.00000000 0.00000000 2.10322600 4.06932000 0.00000000 0.59841700 0.27504400 4.81332200" Properties=species:S:1:pos:R:3:velocities:R:3:dft_forces:R:3:Z:I:1
Al         2.87581292       0.95987028       0.60867479         0.00000000       0.00000000       0.00000000         0.00430200      -0.00332300       0.00553300         13
Al         5.24600009       2.39890338       2.20584240         0.00000000       0.00000000       0.00000000         0.00174800      -0.00334000      -0.00347700         13
Al         3.17998651       3.83979172       3.81035633         0.00000000       0.00000000       0.00000000        -0.00605000       0.00666300      -0.00205600         13
4
pbc=[T, T, T] config_type=high_entropy dft_energy=-0.32968085 Lattice="5.39619400 0.00000000 0.00000000 0.93968500 4.75943200 0.00000000 0.75858500 0.51373500 1.75253700" Properties=species:S:1:pos:R:3:velocities:R:3:dft_forces:R:3:Z:I:1
Al         5.55521503      -0.09727369       2.33112802         0.00000000       0.00000000       0.00000000        -0.00162900       0.00218800       0.00040500         13
Al         5.64578250       2.02564506       1.45497647         0.00000000       0.00000000       0.00000000        -0.00092300      -0.00072800       0.00049300         13
Al         1.45674796       2.63625745      -0.44408396         0.00000000       0.00000000       0.00000000         7.16497600      -2.16525700      -2.89038800         13
Al         2.92134989       0.38749512      -0.15113173         0.00000000       0.00000000       0.00000000        -7.16242500       2.16379700       2.88949000         13
3
pbc=[T, T, T] config_type=high_entropy dft_energy=9.25145771 Lattice="5.92484000 0.00000000 0.00000000 1.17818800 2.25161100 0.00000000 0.94791100 -0.48252700 1.76077900" Properties=species:S:1:pos:R:3:velocities:R:3:dft_forces:R:3:Z:I:1
Al         4.95858842       0.43240297       0.58232422         0.00000000       0.00000000       0.00000000         2.07258600       0.98941700       0.50082500         13
Al         3.12707357       1.15013241       0.49662574         0.00000000       0.00000000       0.00000000        -2.34934500      -0.83933500      -0.82831000         13
Al         7.49245774       0.54322900       1.43929481         0.00000000       0.00000000       0.00000000         0.27675900      -0.15008300       0.32748500         13
6
pbc=[T, T, T] config_type=high_entropy dft_energy=-15.24266294 Lattice="12.91386900 0.00000000 0.00000000 1.35811200 3.74814900 0.00000000 0.25585000 0.66670100 4.55035200" Properties=species:S:1:pos:R:3:velocities:R:3:dft_forces:R:3:Z:I:1
Al         5.55236421       3.24101574       4.39425071         0.00000000       0.00000000       0.00000000        -0.02321200      -0.00133800      -0.01746400         13
Al         2.86375724       1.69507405       2.16070158         0.00000000       0.00000000       0.00000000        -0.00452300      -0.01439100      -0.01498400         13
Al         8.04888501       4.24069101       2.17576006         0.00000000       0.00000000       0.00000000        -0.02771500       0.00039700      -0.01004900         13
Al         0.47998367       0.97273581       4.56382566         0.00000000       0.00000000       0.00000000         0.02273700      -0.01160000      -0.00706700         13
Al        10.72484806      -0.42216995       2.42799804         0.00000000       0.00000000       0.00000000         0.03577100       0.03239700       0.06133500         13
Al         9.25565823       1.57744309       0.01227252         0.00000000       0.00000000       0.00000000        -0.00305800      -0.00546500      -0.01177100         13
2
pbc=[T, T, T] config_type=high_entropy dft_energy=8.83775359 Lattice="5.40340600 0.00000000 0.00000000 1.70045500 5.30878000 0.00000000 0.11574800 0.53163800 1.54235800" Properties=species:S:1:pos:R:3:velocities:R:3:dft_forces:R:3:Z:I:1
Al         3.39594818       1.44473427       0.50275758         0.00000000       0.00000000       0.00000000         0.22355600      -0.22164300       0.05966100         13
Al         7.19567804       4.59868513       0.28109695         0.00000000       0.00000000       0.00000000        -0.22355600       0.22164300      -0.05966100         13
4
pbc=[T, T, T] config_type=high_entropy dft_energy=-7.62488995 Lattice="9.51991900 0.00000000 0.00000000 0.08751700 2.97119600 0.00000000 1.02271300 0.33714900 1.74495400" Properties=species:S:1:pos:R:3:velocities:R:3:dft_forces:R:3:Z:I:1
Al         1.70447378       2.45281461       0.57170613         0.00000000       0.00000000       0.00000000         0.43028100       0.16133600       0.42111000         13
Al         4.11671466       1.26033803       0.80937222         0.00000000       0.00000000       0.00000000         0.46477600      -0.31303100      -0.45078600         13
Al         6.63184182       2.18362605       0.56864149         0.00000000       0.00000000       0.00000000        -0.41225000       0.36027000       0.41809500         13
Al         9.09534597       1.02043001       0.84570041         0.00000000       0.00000000       0.00000000        -0.48280800      -0.20857400      -0.38841900         13
12
pbc=[T, T, T] config_type=high_entropy dft_energy=-41.27916806 Lattice="9.85088300 0.00000000 0.00000000 3.52250800 7.59563200 0.00000000 2.00337800 1.25877600 3.62854900" Properties=species:S:1:pos:R:3:velocities:R:3:dft_forces:R:3:Z:I:1
Al         9.49095689       1.12456547       2.68238853         0.00000000       0.00000000       0.00000000        -0.04999300      -0.01724100      -0.02071400         13
Al         9.14758860       5.29379045       0.97624838         0.00000000       0.00000000       0.00000000         0.05408600       0.03887500      -0.01535000         13
Al         7.23433573       3.21690207       2.84418466         0.00000000       0.00000000       0.00000000         0.01183800       0.03683400       0.00302000         13
Al         4.32658403       2.98944784       1.96157146         0.00000000       0.00000000       0.00000000        -0.00120200      -0.05155300      -0.02673200         13
Al         5.43566519       5.65001293       2.91128375         0.00000000       0.00000000       0.00000000         0.02186100       0.10500400      -0.00386600         13
Al         6.90677038       7.92639672       0.94638932         0.00000000       0.00000000       0.00000000         0.01910300      -0.06260800       0.00598900         13
Al        10.37607022      -0.25465373       0.14699765         0.00000000       0.00000000       0.00000000         0.04401200      -0.01188400       0.00469000         13
Al        12.32708934       5.53186982       2.01260400         0.00000000       0.00000000       0.00000000        -0.01975600       0.01507300       0.00903600         13
Al         6.66023906       0.38491133       1.91773887         0.00000000       0.00000000       0.00000000        -0.00932000       0.04807000      -0.00839700         13
Al         8.06273980       2.67275928      -0.03225515         0.00000000       0.00000000       0.00000000         0.05295800      -0.02853300       0.00289700         13
Al        11.27575198       2.88919519       0.96472205         0.00000000       0.00000000       0.00000000        -0.10144000      -0.01721300       0.06397500         13
Al         8.26563582       6.40723772       3.64282150         0.00000000       0.00000000       0.00000000        -0.02214600      -0.05482500      -0.01455000         13
2
pbc=[T, T, T] config_type=high_entropy dft_energy=-5.11623132 Lattice="8.28824700 0.00000000 0.00000000 0.73468200 2.35182100 0.00000000 0.11091700 -0.00179300 2.25326900" Properties=species:S:1:pos:R:3:velocities:R:3:dft_forces:R:3:Z:I:1
Al         0.66904375       0.98196401       0.26369435         0.00000000       0.00000000       0.00000000         0.40153900      -0.12768800      -0.01653100         13
Al         3.62407418       0.93796015       1.33276352         0.00000000       0.00000000       0.00000000        -0.40153900       0.12768800       0.01653100         13
2
pbc=[T, T, T] config_type=high_entropy dft_energy=-3.90418808 Lattice="4.17102700 0.00000000 0.00000000 1.14486700 3.71194700 0.00000000 0.59226400 0.26533000 1.98368900" Properties=species:S:1:pos:R:3:velocities:R:3:dft_forces:R:3:Z:I:1
Al         3.03404834       0.90397666       1.12536981         0.00000000       0.00000000       0.00000000        -1.74546300       0.28382700       0.20561800         13
Al         4.98332780       2.37727269       1.43753813         0.00000000       0.00000000       0.00000000         1.74546300      -0.28382700      -0.20561800         13
9
pbc=[T, T, T] config_type=high_entropy dft_energy=-29.06778354 Lattice="7.48151200 0.00000000 0.00000000 2.26285300 7.47195100 0.00000000 1.49217800 0.56345700 4.31036600" Properties=species:S:1:pos:R:3:velocities:R:3:dft_forces:R:3:Z:I:1
Al        10.74914900       6.59502957       2.05053500         0.00000000       0.00000000       0.00000000         0.07564900      -0.02681300      -0.01595500         13
Al         3.74373753       2.07033874       0.72091774         0.00000000       0.00000000       0.00000000        -0.13462700      -0.00622500      -0.02116500         13
Al         5.32819805       3.97667392       2.30144380         0.00000000       0.00000000       0.00000000         0.06812400      -0.08302800       0.09929700         13
Al         5.94397932       0.76779705       2.61475459         0.00000000       0.00000000       0.00000000        -0.30884800      -0.02247800       0.14544600         13
Al         6.24336463       6.51451093       1.11977994         0.00000000       0.00000000       0.00000000        -0.04150000       0.06595800       0.04040300         13
Al         0.72584281       2.30195577       1.69475563         0.00000000       0.00000000       0.00000000         0.23212100      -0.03615900      -0.04357400         13
Al         8.14942746       4.98734496       3.24905385         0.00000000       0.00000000       0.00000000         0.11893300       0.22112000      -0.14592100         13
Al         2.95417102       0.95460347       3.58408870         0.00000000       0.00000000       0.00000000         0.00437600      -0.02961800      -0.03593000         13
Al         3.48017043       5.18990033       4.62836534         0.00000000       0.00000000       0.00000000        -0.01422900      -0.08275700      -0.02260200         13
7
pbc=[T, T, T] config_type=high_entropy dft_energy=-16.42655891 Lattice="13.72962100 0.00000000 0.00000000 2.11042200 4.78051100 0.00000000 2.19146800 1.04969200 4.52015700" Properties=species:S:1:pos:R:3:velocities:R:3:dft_forces:R:3:Z:I:1
Al         9.54906270       0.24793519       3.79181209         0.00000000       0.00000000       0.00000000        -0.08467500      -0.00933900      -0.00196800         13
Al         8.56915306       3.59523438       2.68802155         0.00000000       0.00000000       0.00000000        -0.01801200       0.09350200       0.04522900         13
Al        16.29276831       3.73403380       2.72767502         0.00000000       0.00000000       0.00000000        -0.00544700       0.03295700       0.02203000         13
Al         5.55841869       5.20298138       3.86384619         0.00000000       0.00000000       0.00000000         0.09916000      -0.00905400      -0.00622900         13
Al         8.63454490       6.60638403       4.95329217         0.00000000       0.00000000       0.00000000         0.02908800      -0.11887400      -0.06200800         13
Al        13.30241162       2.23043877       1.57651810         0.00000000       0.00000000       0.00000000        -0.00957600       0.01027200       0.00516300         13
Al        10.30224316       0.75157087       0.44904290         0.00000000       0.00000000       0.00000000        -0.01053700       0.00053600      -0.00221700         13
6
pbc=[T, T, T] config_type=high_entropy dft_energy=-18.06369125 Lattice="7.30123100 0.00000000 0.00000000 2.58552500 4.89794200 0.00000000 1.88026700 0.08214000 4.98136600" Properties=species:S:1:pos:R:3:velocities:R:3:dft_forces:R:3:Z:I:1
Al         5.14537809       0.75834918       4.26980423         0.00000000       0.00000000       0.00000000        -0.10126000      -0.00725400      -0.02323000         13
Al         8.06681776       0.74156601       1.71838821         0.00000000       0.00000000       0.00000000        -0.08946700      -0.04541500      -0.13369400         13
Al         7.85542541       4.10720691       1.47650822         0.00000000       0.00000000       0.00000000         0.04365300       0.01633800      -0.02028500         13
Al         5.07088445       2.50443197       1.24864536         0.00000000       0.00000000       0.00000000         0.10239000       0.01297100       0.01893000         13
Al         4.94631006       4.03242339       4.05614835         0.00000000       0.00000000       0.00000000        -0.04492900      -0.01572100       0.02036800         13
Al         2.14343981       2.48587415       3.82708198         0.00000000       0.00000000       0.00000000         0.08961300       0.03908200       0.13791100         13
13
pbc=[T, T, T] config_type=high_entropy dft_energy=-44.59761918 Lattice="8.75869200 0.00000000 0.00000000 1.21008500 8.44724100 0.00000000 1.37718000 1.07363800 4.01074800" Properties=species:S:1:pos:R:3:velocities:R:3:dft_forces:R:3:Z:I:1
Al         5.97277606       1.81474064       2.45154194         0.00000000       0.00000000       0.00000000        -0.00423600      -0.00450100      -0.00155600         13
Al         2.90776645       2.60984318       3.07504486         0.00000000       0.00000000       0.00000000        -0.00645600      -0.00159100       0.00283000         13
Al         9.39405990       6.39289514       2.75803478         0.00000000       0.00000000       0.00000000        -0.00021500       0.00523900      -0.00018800         13
Al         3.26190541       8.08143116       3.98579013         0.00000000       0.00000000       0.00000000         0.00805800      -0.00722500      -0.00279600         13
Al         3.38089828       0.19922579       1.22664435         0.00000000       0.00000000       0.00000000        -0.00750900      -0.01005500       0.00724400         13
Al         4.13879641       3.18263402       0.30323588         0.00000000       0.00000000       0.00000000        -0.00599800      -0.00122900       0.00373200         13
Al         6.75735119       4.78050210       1.54382838         0.00000000       0.00000000       0.00000000        -0.00153700       0.00665200      -0.01065800         13
Al         7.62147772       7.80350399       0.58585151         0.00000000       0.00000000       0.00000000         0.00129800      -0.00007100       0.00432600         13
Al         3.73204416       5.64992657       2.13605162         0.00000000       0.00000000       0.00000000        -0.00099000       0.00143600       0.00015500         13
Al         6.40646988       7.28373758       3.37732195         0.00000000       0.00000000       0.00000000        -0.00513900      -0.00672800       0.00589900         13
Al         9.82569150       3.95898476       0.89972534         0.00000000       0.00000000       0.00000000         0.00296800       0.00532100      -0.00222700         13
Al         0.23226469       0.99003615       1.81834796         0.00000000       0.00000000       0.00000000         0.01358800      -0.00171900      -0.00767300         13
Al         7.18239908       2.33546073      -0.33740876         0.00000000       0.00000000       0.00000000         0.00616700       0.01447000       0.00091100         13
18
pbc=[T, T, T] config_type=high_entropy dft_energy=-28.25435089 Lattice="14.32076100 0.00000000 0.00000000 1.04792000 4.03930200 0.00000000 1.54581200 0.04129600 4.30398000" Properties=species:S:1:pos:R:3:velocities:R:3:dft_forces:R:3:Z:I:1
Al         9.05153870       4.49805518       4.06046076         0.00000000       0.00000000       0.00000000        -0.97354700       5.06999000       4.79801800         13
Al        11.07932878       1.31646237       3.74465916         0.00000000       0.00000000       0.00000000        -4.78947400      -2.95121400       2.37690700         13
Al        12.20494573       1.53862728       1.86268584         0.00000000       0.00000000       0.00000000        -3.16389600      -1.67741500      -8.81702700         13
Al         9.00787557       2.48596310       4.95796885         0.00000000       0.00000000       0.00000000        -6.02012200      -2.35456400      -2.04612500         13
Al        13.15916249       3.44704923       1.71438884         0.00000000       0.00000000       0.00000000        -0.53701100       2.05736400      -8.02288100         13
Al         3.05082375       2.87917469       1.07623707         0.00000000       0.00000000       0.00000000        -1.31033300       5.14556500       4.11161600         13
Al         8.50922029       1.03027432       1.99621545         0.00000000       0.00000000       0.00000000         2.95233600       1.03440500      -1.92073400         13
Al        14.36586582       1.70946993       2.22407526         0.00000000       0.00000000       0.00000000         6.38299800      -0.53228500      -1.24972000         13
Al        13.13856029       0.31139854       3.40364988         0.00000000       0.00000000       0.00000000         5.31817600      -3.96996500       6.21491700         13
Al         8.59102814       3.16046967       2.38132926         0.00000000       0.00000000       0.00000000        -2.22273800      -2.68589300       2.51943000         13
Al        10.79565716       3.14797121       2.25857707         0.00000000       0.00000000       0.00000000         1.18997300       1.49798000      -1.75426200         13
Al         6.08471491       2.62194137       3.76647078         0.00000000       0.00000000       0.00000000         5.04536600       4.96680500      -2.56157900         13
Al         1.97101132       1.01867877       1.40491564         0.00000000       0.00000000       0.00000000        -3.81823000      -1.56376100       4.55714100         13
Al        11.38931917       2.45778672      -0.62661500         0.00000000       0.00000000       0.00000000         1.25359300       2.93580200       8.29127600         13
Al         6.00077614       0.55537716       3.04233020         0.00000000       0.00000000       0.00000000        -1.04701000      -1.25028000      -6.63346900         13
Al         4.06931299       0.96449212       0.87189067         0.00000000       0.00000000       0.00000000         6.81754000      -6.06672400       6.96109100         13
Al         4.16320680       1.58060258       3.70034829         0.00000000       0.00000000       0.00000000        -7.96293000      -0.10796700      -8.13463400         13
Al         9.41743564       3.45854096       0.22103705         0.00000000       0.00000000       0.00000000         2.88531000       0.45215800       1.31003500         13
3
pbc=[T, T, T] config_type=high_entropy dft_energy=-10.33075627 Lattice="4.39271900 0.00000000 0.00000000 1.60247500 5.22803200 0.00000000 0.98208500 0.46098200 2.22340500" Properties=species:S:1:pos:R:3:velocities:R:3:dft_forces:R:3:Z:I:1
Al         3.03278101       1.44123606       0.94477286         0.00000000       0.00000000       0.00000000         0.03508100      -0.04423000       0.06502600         13
Al         1.69551501       3.54217765       3.13593792         0.00000000       0.00000000       0.00000000         0.03113400       0.02586700      -0.00351300         13
Al         2.79171510       4.73824294       0.88917975         0.00000000       0.00000000       0.00000000        -0.06621500       0.01836300      -0.06151200         13
2
pbc=[T, T, T] config_type=high_entropy dft_energy=-5.65444426 Lattice="5.48773800 0.00000000 0.00000000 1.51204400 4.79893000 0.00000000 0.63309700 0.70422700 2.13017900" Properties=species:S:1:pos:R:3:velocities:R:3:dft_forces:R:3:Z:I:1
Al         0.23071866       0.06975206       2.39264198         0.00000000       0.00000000       0.00000000         0.49442800       0.10960000       0.01614500         13
Al         2.46829489       1.24512161       0.24315494         0.00000000       0.00000000       0.00000000        -0.49442800      -0.10960000      -0.01614500         13
5
pbc=[T, T, T] config_type=high_entropy dft_energy=-15.94790525 Lattice="9.78186700 0.00000000 0.00000000 0.66376900 3.59892400 0.00000000 0.67159100 0.55782200 3.69204400" Properties=species:S:1:pos:R:3:velocities:R:3:dft_forces:R:3:Z:I:1
Al         0.38157226       0.79042197       1.10757103         0.00000000       0.00000000       0.00000000         0.02591100      -0.02663900      -0.01078700         13
Al         4.06275624       0.12354791       0.50569905         0.00000000       0.00000000       0.00000000        -0.01372700      -0.01432200       0.00052500         13
Al         6.60171927       2.00349917       2.17030400         0.00000000       0.00000000       0.00000000        -0.00468600       0.03650200       0.03039300         13
Al        -0.71648539       3.45054716       3.46799300         0.00000000       0.00000000       0.00000000        -0.00595800       0.00129000      -0.00539500         13
Al         2.86895059       2.48421672       2.62515610         0.00000000       0.00000000       0.00000000        -0.00154000       0.00316800      -0.01473700         13
3
pbc=[T, T, T] config_type=high_entropy dft_energy=-8.65141296 Lattice="10.75296400 0.00000000 0.00000000 1.93021000 4.09061300 0.00000000 1.17973700 0.12903500 2.06103200" Properties=species:S:1:pos:R:3:velocities:R:3:dft_forces:R:3:Z:I:1
Al         3.90354989      -0.01226961      -0.43118744         0.00000000       0.00000000       0.00000000        -0.35521600      -0.02465300       0.21483400         13
Al         0.55967627       2.36205590       1.39335272         0.00000000       0.00000000       0.00000000         0.33727700      -0.14076800      -0.19036800         13
Al         2.82600805       3.78969102      -0.05443672         0.00000000       0.00000000       0.00000000         0.01793900       0.16542100      -0.02446700         13
3
pbc=[T, T, T] config_type=high_entropy dft_energy=-8.12337017 Lattice="6.92959600 0.00000000 0.00000000 0.67167900 5.72039000 0.00000000 0.77984300 0.91182100 2.87996100" Properties=species:S:1:pos:R:3:velocities:R:3:dft_forces:R:3:Z:I:1
Al         5.33801893       3.14960015      -0.17188266         0.00000000       0.00000000       0.00000000         0.19504600      -0.11104400      -0.00154400         13
Al         2.71720831       3.60888326       2.03195193         0.00000000       0.00000000       0.00000000        -0.19035500       0.03318200       0.04298800         13
Al         7.36198606       0.94208531       1.81123177         0.00000000       0.00000000       0.00000000        -0.00469000       0.07786200      -0.04144400         13
6
pbc=[T, T, T] config_type=high_entropy dft_energy=-14.28511604 Lattice="7.21582400 0.00000000 0.00000000 2.09000500 5.77069000 0.00000000 3.12542100 1.95756700 5.91787700" Properties=species:S:1:pos:R:3:velocities:R:3:dft_forces:R:3:Z:I:1
Al         8.66160747       1.06775394       3.08383100         0.00000000       0.00000000       0.00000000        -0.07637500       0.01307000       0.03401800         13
Al         9.10481171       4.26683183       0.73585779         0.00000000       0.00000000       0.00000000        -0.23714000       0.10771100      -0.21578200         13
Al        10.34548028       3.73623015       5.46004111         0.00000000       0.00000000       0.00000000         0.17607100      -0.05678800       0.20457900         13
Al         7.26046330       7.12821657       2.59250281         0.00000000       0.00000000       0.00000000         0.07813300      -0.25080400       0.03764300         13
Al         5.69409357       5.60958399       0.10832995         0.00000000       0.00000000       0.00000000         0.18105600       0.26244500      -0.08676300         13
Al         6.37157536       4.20756391       3.84286745         0.00000000       0.00000000       0.00000000        -0.12174500      -0.07563500       0.02630600         13
2
pbc=[T, T, T] config_type=high_entropy dft_energy=-3.14747912 Lattice="4.83069800 0.00000000 0.00000000 0.56169700 3.85218800 0.00000000 0.77095100 0.85006000 1.62942700" Properties=species:S:1:pos:R:3:velocities:R:3:dft_forces:R:3:Z:I:1
Al         0.01314913       1.62808628       2.11276242         0.00000000       0.00000000       0.00000000         0.36266300       0.06836000       0.27698000         13
Al         1.93958004       2.54943680       0.37869113         0.00000000       0.00000000       0.00000000        -0.36266300      -0.06836000      -0.27698000         13
2
pbc=[T, T, T] config_type=high_entropy dft_energy=-4.45238817 Lattice="6.07395100 0.00000000 0.00000000 0.07467300 6.28426500 0.00000000 0.12135700 1.05782000 1.98425600" Properties=species:S:1:pos:R:3:velocities:R:3:dft_forces:R:3:Z:I:1
Al        -0.43507861       3.78871992       0.74664023         0.00000000       0.00000000       0.00000000         0.27202200       0.16869800      -0.07902300         13
Al         2.34797385       6.87252447       1.27520602         0.00000000       0.00000000       0.00000000        -0.27202200      -0.16869800       0.07902300         13
4
pbc=[T, T, T] config_type=high_entropy dft_energy=-13.46527871 Lattice="6.10035400 0.00000000 0.00000000 0.15414900 5.72940600 0.00000000 0.08555200 0.62551400 2.61941100" Properties=species:S:1:pos:R:3:velocities:R:3:dft_forces:R:3:Z:I:1
Al         2.57518901       1.38507887       1.32623889         0.00000000       0.00000000       0.00000000        -0.01071400       0.01483000      -0.00243800         13
Al         4.01269121       4.22040609       1.77354915         0.00000000       0.00000000       0.00000000        -0.02749600      -0.03479700       0.01018000         13
Al         5.62881614       1.27416317       0.51464096         0.00000000       0.00000000       0.00000000         0.03596600       0.02026000      -0.01239300         13
Al         0.99774217       4.10325014       0.59333724         0.00000000       0.00000000       0.00000000         0.00224400      -0.00029300       0.00465000         13
5
pbc=[T, T, T] config_type=high_entropy dft_energy=-12.82939669 Lattice="7.20343200 0.00000000 0.00000000 1.55988300 7.09226000 0.00000000 1.96015000 0.59643100 3.57782400" Properties=species:S:1:pos:R:3:velocities:R:3:dft_forces:R:3:Z:I:1
Al         5.74812294       7.46804811       0.64521502         0.00000000       0.00000000       0.00000000        -0.17827600       0.01615800       0.01089400         13
Al         4.41517021       3.38993999       2.28277707         0.00000000       0.00000000       0.00000000        -0.05745300      -0.04710000       0.03088400         13
Al         4.48805128       6.51678631       3.73264464         0.00000000       0.00000000       0.00000000         0.08810300       0.05507400      -0.04577500         13
Al         7.92494752       4.96594241       2.93416219         0.00000000       0.00000000       0.00000000        -0.04527400       0.01170600      -0.00050900         13
Al         8.46549323       1.83727196       1.79982444         0.00000000       0.00000000       0.00000000         0.19290000      -0.03583800       0.00450600         13
9
pbc=[T, T, T] config_type=high_entropy dft_energy=-32.27382282 Lattice="4.77302500 0.00000000 0.00000000 1.31152200 5.88282000 0.00000000 -1.80664700 0.55001300 6.36437200" Properties=species:S:1:pos:R:3:velocities:R:3:dft_forces:R:3:Z:I:1
Al         3.04121255       4.23224155       3.82246954         0.00000000       0.00000000       0.00000000        -0.00400200       0.02604700       0.08337300         13
Al         7.81637595       6.08728880       6.37947117         0.00000000       0.00000000       0.00000000        -0.00502100      -0.01180800      -0.00883500         13
Al         4.10243877      -0.23160734       4.72024206         0.00000000       0.00000000       0.00000000         0.04262600      -0.01578200      -0.05937600         13
Al         5.93720704       0.13795338       1.71495788         0.00000000       0.00000000       0.00000000        -0.02834200       0.01352300       0.08169200         13
Al         2.96177469       3.33157951       0.50093606         0.00000000       0.00000000       0.00000000         0.01015200      -0.01006300      -0.05955400         13
Al         8.30435288       2.49725207       6.02182046         0.00000000       0.00000000       0.00000000        -0.02021200       0.00722500       0.01206500         13
Al         3.51300807       1.54111963       2.62955167         0.00000000       0.00000000       0.00000000         0.00631800      -0.02119600      -0.08143800         13
Al         5.39343877       3.76723560       2.14752953         0.00000000       0.00000000       0.00000000        -0.00917800       0.00598300       0.01847500         13
Al         5.89383314       2.07266930       4.34267211         0.00000000       0.00000000       0.00000000         0.00765900       0.00607200       0.01359800         13
9
pbc=[T, T, T] config_type=high_entropy dft_energy=19.94575557 Lattice="9.12974300 0.00000000 0.00000000 1.01932100 2.66986100 0.00000000 1.24797800 -0.35715900 2.81554400" Properties=species:S:1:pos:R:3:velocities:R:3:dft_forces:R:3:Z:I:1
Al         1.94771588       1.51130231      -1.07892973         0.00000000       0.00000000       0.00000000        -2.54581200       1.72776900       2.61997600         13
Al         5.02345912       2.00736404       1.14959691         0.00000000       0.00000000       0.00000000         0.50927000      -0.21442700      -0.75507300         13
Al         3.94074881       0.82402346      -0.27220385         0.00000000       0.00000000       0.00000000         1.61040900      -0.88184400      -1.53967800         13
Al         8.62727425       0.79615776       2.86838441         0.00000000       0.00000000       0.00000000        -0.57783400       0.11222600       0.65760500         13
Al         3.09043352       2.65030279       0.30730288         0.00000000       0.00000000       0.00000000        -2.65192200       2.26946800       3.67793800         13
Al         9.31749246       0.50800659       0.89667011         0.00000000       0.00000000       0.00000000         2.49807900      -2.28644200      -3.71787800         13
Al        10.45577807       1.64862033       2.28289925         0.00000000       0.00000000       0.00000000         2.51661000      -1.72229700      -2.61561900         13
Al         7.43682435      -0.33873608       1.46951185         0.00000000       0.00000000       0.00000000        -1.38083700       1.00191300       1.74000900         13
Al         6.93819369      -0.11024845       3.41442095         0.00000000       0.00000000       0.00000000         0.02203700      -0.00636500      -0.06728000         13
2
pbc=[T, T, T] config_type=high_entropy dft_energy=-5.64630832 Lattice="6.67639200 0.00000000 0.00000000 2.09036000 5.00991800 0.00000000 0.82244000 0.89860900 2.24051600" Properties=species:S:1:pos:R:3:velocities:R:3:dft_forces:R:3:Z:I:1
Al         0.90731481       3.40316809       1.28901465         0.00000000       0.00000000       0.00000000         0.48091800      -0.15905400      -0.11107300         13
Al         3.68673910       5.18372015       0.92831278         0.00000000       0.00000000       0.00000000        -0.48091800       0.15905400       0.11107300         13
10
pbc=[T, T, T] config_type=high_entropy dft_energy=-28.89074790 Lattice="11.06285400 0.00000000 0.00000000 1.36722100 4.00175400 0.00000000 1.61374800 -0.53052000 3.47085000" Properties=species:S:1:pos:R:3:velocities:R:3:dft_forces:R:3:Z:I:1
Al         4.49853400       3.42766056       1.33693719         0.00000000       0.00000000       0.00000000         1.55124100       2.24800800      -2.30439800         13
Al         5.94276490       1.62908841       1.83495308         0.00000000       0.00000000       0.00000000         0.97507800      -0.29731500       0.99230700         13
Al         6.89155795       0.04409324       3.30537053         0.00000000       0.00000000       0.00000000        -1.59803200      -0.32321100       0.98630300         13
Al         7.79458188      -0.05878220       1.12549380         0.00000000       0.00000000       0.00000000         0.16716100       0.90740300       0.33591300         13
Al         9.72599601       2.35724412      -0.53806980         0.00000000       0.00000000       0.00000000         1.23659300       0.07719800      -1.90623600         13
Al         9.96559487       0.86536453       1.27405263         0.00000000       0.00000000       0.00000000        -0.37795100      -1.62603900       1.12437700         13
Al         7.52240478       2.44385089       0.30498353         0.00000000       0.00000000       0.00000000        -0.65891700      -1.70033000      -1.32286100         13
Al         4.31011826       2.11947385       3.43386754         0.00000000       0.00000000       0.00000000         0.89325000      -1.64247700       0.12656100         13
Al         2.57371408       0.49594464       3.40824393         0.00000000       0.00000000       0.00000000        -0.48668900       0.75197100       1.75875100         13
Al         2.35223560       2.73207723       2.28485988         0.00000000       0.00000000       0.00000000        -1.70173400       1.60479200       0.20928300         13
6
pbc=[T, T, T] config_type=high_entropy dft_energy=-21.81321294 Lattice="4.29814700 0.00000000 0.00000000 0.99963100 5.90067300 0.00000000 0.39159000 1.77070700 4.14193900" Properties=species:S:1:pos:R:3:velocities:R:3:dft_forces:R:3:Z:I:1
Al         0.47446586       0.80433667       2.05669571         0.00000000       0.00000000       0.00000000         0.07850700       0.02531500      -0.03730500         13
Al         1.01665093       4.18116296       0.69710123         0.00000000       0.00000000       0.00000000         0.09484300      -0.07469800      -0.07362100         13
Al         5.22530670       3.33637374       3.42862370         0.00000000       0.00000000       0.00000000         0.03951100       0.14425700      -0.02811200         13
Al         3.52634550       5.37931429       3.09092534         0.00000000       0.00000000       0.00000000        -0.02160000      -0.12742500       0.05838400         13
Al         3.05767508       2.78549584       1.69137280         0.00000000       0.00000000       0.00000000        -0.09623600       0.02571200       0.03446200         13
Al         2.97969626       2.01158580       4.46301575         0.00000000       0.00000000       0.00000000        -0.09502500       0.00683900       0.04619200         13
2
pbc=[T, T, T] config_type=high_entropy dft_energy=-0.60626897 Lattice="7.22890000 0.00000000 0.00000000 2.17946400 5.54482900 0.00000000 0.76632000 0.65842100 1.63310600" Properties=species:S:1:pos:R:3:velocities:R:3:dft_forces:R:3:Z:I:1
Al         4.82924041       2.48368900       1.75365563         0.00000000       0.00000000       0.00000000         0.55115900      -0.15661700      -0.18544400         13
Al         8.08450888       4.49136750       1.30510425         0.00000000       0.00000000       0.00000000        -0.55115900       0.15661700       0.18544400         13
3
pbc=[T, T, T] config_type=high_entropy dft_energy=4.32394238 Lattice="6.75919200 0.00000000 0.00000000 0.78993400 1.81659500 0.00000000 0.07724800 0.61002300 1.94502500" Properties=species:S:1:pos:R:3:velocities:R:3:dft_forces:R:3:Z:I:1
Al         0.84696100       0.99852100       1.47327923         0.00000000       0.00000000       0.00000000        -0.15291900       0.03833300      -0.03342400         13
Al         5.59471924       1.40304958       0.80531665         0.00000000       0.00000000       0.00000000        -0.06803100       0.05521100      -0.03870200         13
Al         2.85350869       0.59223456       2.11975989         0.00000000       0.00000000       0.00000000         0.22095000      -0.09354500       0.07212600         13
4
pbc=[T, T, T] config_type=high_entropy dft_energy=-9.75364564 Lattice="4.34098200 0.00000000 0.00000000 1.68974400 3.22630000 0.00000000 1.91172300 -0.27944100 4.07573900" Properties=species:S:1:pos:R:3:velocities:R:3:dft_forces:R:3:Z:I:1
Al         3.72303305       3.70755945       0.39205343         0.00000000       0.00000000       0.00000000         4.49147100      -0.69465600      -0.97245200         13
Al         4.42535906       1.52474029       0.66649492         0.00000000       0.00000000       0.00000000        -4.01222000       0.88886800       2.51937300         13
Al         2.71271678       0.70134873       2.72617626         0.00000000       0.00000000       0.00000000        -0.28361100      -1.89995400      -3.49856400         13
Al         6.36368701       2.55461520       1.54626396         0.00000000       0.00000000       0.00000000        -0.19564000       1.70574100       1.95164300         13
4
pbc=[T, T, T] config_type=high_entropy dft_energy=-5.20688315 Lattice="4.26912500 0.00000000 0.00000000 1.01502500 2.53243500 0.00000000 1.81394100 0.32606300 3.60301600" Properties=species:S:1:pos:R:3:velocities:R:3:dft_forces:R:3:Z:I:1
Al         1.13997516       0.75897755       1.66443013         0.00000000       0.00000000       0.00000000         1.25048800      -0.01120600       1.36248700         13
Al         3.32013532       1.00605066       2.39696489         0.00000000       0.00000000       0.00000000        -0.39073800      -1.25807100      -1.06050100         13
Al         4.09579794      -0.20951591       0.15408268         0.00000000       0.00000000       0.00000000        -0.94756500      -0.84099200       0.19914300         13
Al         2.96562859       1.54645437       0.28522264         0.00000000       0.00000000       0.00000000         0.08781600       2.11026900      -0.50112900         13
2
pbc=[T, T, T] config_type=high_entropy dft_energy=-6.13798042 Lattice="9.19326800 0.00000000 0.00000000 0.06862600 2.72927700 0.00000000 0.43490500 0.76301900 2.66688900" Properties=species:S:1:pos:R:3:velocities:R:3:dft_forces:R:3:Z:I:1
Al         7.95963710       2.78304440       1.20423688         0.00000000       0.00000000       0.00000000        -0.47238800       0.03459600       0.08443800         13
Al         4.31887677       0.74574698       0.34876163         0.00000000       0.00000000       0.00000000         0.47238800      -0.03459600      -0.08443800         13
19
pbc=[T, T, T] config_type=high_entropy dft_energy=-58.82905048 Lattice="10.10091400 0.00000000 0.00000000 2.57869800 9.75897100 0.00000000 0.40107600 0.09039700 5.43240700" Properties=species:S:1:pos:R:3:velocities:R:3:dft_forces:R:3:Z:I:1
Al         5.41514294       3.90478473       1.56043817         0.00000000       0.00000000       0.00000000         0.03093000       0.02658600      -0.08290900         13
Al        10.93285928       7.90376843       3.95548564         0.00000000       0.00000000       0.00000000         0.04085900      -0.09836300       0.13532900         13
Al         7.93180947       2.35777843       5.07115919         0.00000000       0.00000000       0.00000000         0.10563200      -0.03741000      -0.00565700         13
Al         6.10493847       1.19376569       2.88232514         0.00000000       0.00000000       0.00000000        -0.03145100       0.03164600       0.03786600         13
Al         6.40198932       9.11235489       3.89311380         0.00000000       0.00000000       0.00000000        -0.03789700       0.05661900       0.04194400         13
Al         3.34610431       2.56128615      -0.32501110         0.00000000       0.00000000       0.00000000        -0.08863800       0.06829900       0.03214500         13
Al         6.59903450       6.73176673       1.95239412         0.00000000       0.00000000       0.00000000         0.01923400      -0.09087700       0.05632300         13
Al         8.60314875       5.85652725       4.33515956         0.00000000       0.00000000       0.00000000        -0.02034200       0.00637900      -0.11212400         13
Al         3.65046475       7.44955245       2.69912838         0.00000000       0.00000000       0.00000000        -0.07378600      -0.08066900      -0.01283200         13
Al         8.53131677       3.55272591       2.27230338         0.00000000       0.00000000       0.00000000        -0.07287000       0.04192400      -0.00681700         13
Al        10.74672772       1.23639208       3.53349654         0.00000000       0.00000000       0.00000000        -0.00514500       0.01382700       0.06962400         13
Al         2.66444817       6.15111792       5.70505876         0.00000000       0.00000000       0.00000000         0.01976800       0.00355300      -0.01761900         13
Al         9.62858397       6.58283130       1.50548979         0.00000000       0.00000000       0.00000000        -0.07877400      -0.01014100      -0.10947600         13
Al        10.77963756       3.83161719       5.22407791         0.00000000       0.00000000       0.00000000        -0.02165300       0.11175300       0.01660900         13
Al         2.52224151       4.22023438       2.74150886         0.00000000       0.00000000       0.00000000         0.08884700       0.04242800       0.02291500         13
Al         2.40580647       0.08263531       1.24880171         0.00000000       0.00000000       0.00000000        -0.01517000      -0.11364400       0.04050900         13
Al        12.45065217       9.38835143       6.21364717         0.00000000       0.00000000       0.00000000         0.01220600      -0.11926100      -0.06076000         13
Al         5.56743925       6.14339027       4.77184739         0.00000000       0.00000000       0.00000000         0.01075100       0.11517600       0.01694200         13
Al         5.91706899      -0.40693975       0.27011268         0.00000000       0.00000000       0.00000000         0.11749900       0.03217600      -0.06201100         13
2
pbc=[T, T, T] config_type=high_entropy dft_energy=-0.27840238 Lattice="4.95119300 0.00000000 0.00000000 1.60322000 3.88730900 0.00000000 0.22044700 0.13865200 1.83730100" Properties=species:S:1:pos:R:3:velocities:R:3:dft_forces:R:3:Z:I:1
Al         5.55069240       1.85446487       0.46550427         0.00000000       0.00000000       0.00000000         0.18743600      -0.05681900      -0.01862400         13
Al         3.23067192       3.19861741       1.37431561         0.00000000       0.00000000       0.00000000        -0.18743600       0.05681900       0.01862400         13
2
pbc=[T, T, T] config_type=high_entropy dft_energy=0.97565293 Lattice="5.54597500 0.00000000 0.00000000 0.52630800 6.00539700 0.00000000 0.68987500 -0.04191700 1.70149300" Properties=species:S:1:pos:R:3:velocities:R:3:dft_forces:R:3:Z:I:1
Al         2.31361041       1.26015426       1.03310854         0.00000000       0.00000000       0.00000000         0.02565800      -0.53711200      -0.03251200         13
Al         5.00100226      -0.33613211       1.04088316         0.00000000       0.00000000       0.00000000        -0.02565800       0.53711200       0.03251200         13
3
pbc=[T, T, T] config_type=high_entropy dft_energy=-9.85835520 Lattice="8.32931300 0.00000000 0.00000000 0.71838800 2.35202800 0.00000000 1.26948600 0.81700300 3.14962000" Properties=species:S:1:pos:R:3:velocities:R:3:dft_forces:R:3:Z:I:1
Al         7.82163222       2.79753634       1.33857854         0.00000000       0.00000000       0.00000000        -0.33108600       0.11894000       0.11475700         13
Al         1.32433438       0.98011926       0.33654992         0.00000000       0.00000000       0.00000000        -0.37416900       0.10530700       0.19301700         13
Al         4.37663624       2.54467426       1.58437341         0.00000000       0.00000000       0.00000000         0.70525500      -0.22424700      -0.30777400         13
6
pbc=[T, T, T] config_type=high_entropy dft_energy=-18.50618968 Lattice="6.89081400 0.00000000 0.00000000 2.88902800 6.75048400 0.00000000 0.03907000 0.37466500 2.27180700" Properties=species:S:1:pos:R:3:velocities:R:3:dft_forces:R:3:Z:I:1
Al         5.27433348       6.45856312       1.78699374         0.00000000       0.00000000       0.00000000         0.24255500       0.32093200       0.06215500         13
Al         7.84530877       5.97759615       1.27623931         0.00000000       0.00000000       0.00000000        -0.22901100      -0.23907600      -0.07844300         13
Al         1.80811746       2.65585431       1.00860551         0.00000000       0.00000000       0.00000000        -0.59973100       0.06004800      -0.38490800         13
Al         3.32934304       4.83609508       0.88498446         0.00000000       0.00000000       0.00000000         0.37100000      -0.39581300       0.01275600         13
Al         4.17521824       2.13258675       2.17714013         0.00000000       0.00000000       0.00000000         0.37318000       0.02522700       0.13740400         13
Al         6.83209198       0.71656031      -0.13349504         0.00000000       0.00000000       0.00000000        -0.15799300       0.22868200       0.25103600         13
6
pbc=[T, T, T] config_type=high_entropy dft_energy=-17.57726264 Lattice="14.32634000 0.00000000 0.00000000 1.00479300 3.04606000 0.00000000 0.35926200 -1.25096600 4.27192600" Properties=species:S:1:pos:R:3:velocities:R:3:dft_forces:R:3:Z:I:1
Al        11.27469278       2.66695623       3.15763149         0.00000000       0.00000000       0.00000000        -0.09789800       0.02109800       0.07567000         13
Al         4.23951448       3.26977349       4.86526873         0.00000000       0.00000000       0.00000000        -0.07910800      -0.06300800      -0.44952200         13
Al         5.98903769       1.07787053       3.01677443         0.00000000       0.00000000       0.00000000         0.03011700       0.07503600       0.47618800         13
Al        13.43775504       1.62182682       0.89134968         0.00000000       0.00000000       0.00000000         0.18422700       0.05515500       0.31282800         13
Al         8.53499791       1.83687117       5.00325788         0.00000000       0.00000000       0.00000000        -0.03465500      -0.06211900      -0.40438500         13
Al         1.66517017       2.41936501       2.88095592         0.00000000       0.00000000       0.00000000        -0.00268300      -0.02616200      -0.01077800         13
2
pbc=[T, T, T] config_type=high_entropy dft_energy=-5.53391446 Lattice="5.36956400 0.00000000 0.00000000 2.27487100 4.47115500 0.00000000 1.71714500 -0.33338500 3.14054000" Properties=species:S:1:pos:R:3:velocities:R:3:dft_forces:R:3:Z:I:1
Al         7.29790270       1.91519076       3.56316269         0.00000000       0.00000000       0.00000000        -0.07394200      -0.03343200      -0.03683400         13
Al         2.90437635       0.78368023       0.75354024         0.00000000       0.00000000       0.00000000         0.07394200       0.03343200       0.03683400         13
3
pbc=[T, T, T] config_type=high_entropy dft_energy=-0.88067723 Lattice="5.07390400 0.00000000 0.00000000 1.11157500 5.29649100 0.00000000 0.62492600 0.51901300 1.69109700" Properties=species:S:1:pos:R:3:velocities:R:3:dft_forces:R:3:Z:I:1
Al         2.57490370       2.39012655       0.67295232         0.00000000       0.00000000       0.00000000        -0.00622800       0.00501500      -0.00113800         13
Al         5.11119542       2.39059868       0.67284130         0.00000000       0.00000000       0.00000000         0.00737000       0.00013600      -0.00167800         13
Al         3.12960317       5.03932425       0.67238047         0.00000000       0.00000000       0.00000000        -0.00114200      -0.00515000       0.00281500         13
6
pbc=[T, T, T] config_type=high_entropy dft_energy=-15.27616718 Lattice="3.38861300 0.00000000 0.00000000 0.54290300 4.62204400 0.00000000 -1.23009400 0.70403200 5.12315800" Properties=species:S:1:pos:R:3:velocities:R:3:dft_forces:R:3:Z:I:1
Al         3.39841455       3.12862425       1.20667770         0.00000000       0.00000000       0.00000000         0.03111000       0.01611700       0.10060200         13
Al         3.12914347       0.81741418       1.20564603         0.00000000       0.00000000       0.00000000        -0.02555600       0.01181100       0.07933500         13
Al         1.56212473       2.89595309      -0.48643805         0.00000000       0.00000000       0.00000000        -0.05254100      -0.02971300      -0.08380300         13
Al         1.58910412       1.04892900       2.91837898         0.00000000       0.00000000       0.00000000         0.03198100       0.07272400      -0.01982000         13
Al         1.86169416       3.36451754       2.91983128         0.00000000       0.00000000       0.00000000         0.02063700      -0.09193300       0.00569700         13
Al         3.44051009       1.28921886       4.62836813         0.00000000       0.00000000       0.00000000        -0.00563100       0.02099300      -0.08201100         13
14
pbc=[T, T, T] config_type=high_entropy dft_energy=-39.76654946 Lattice="16.22567600 0.00000000 0.00000000 0.45504700 6.14230200 0.00000000 0.49031300 1.18102300 3.97571100" Properties=species:S:1:pos:R:3:velocities:R:3:dft_forces:R:3:Z:I:1
Al        10.67203888       0.82483157       1.87330591         0.00000000       0.00000000       0.00000000         0.03888000      -0.21077600      -0.02020800         13
Al         4.53611855       2.93557155       1.77722365         0.00000000       0.00000000       0.00000000        -1.06814800      -1.38095400       0.28858800         13
Al         5.19563253       3.28070043      -0.65961642         0.00000000       0.00000000       0.00000000         0.95124500      -1.74651400      -1.14469400         13
Al         5.64518073       0.71213286       2.53509890         0.00000000       0.00000000       0.00000000         0.50788400       0.61668700      -0.16960700         13
Al         1.73851308       0.56597880       1.09434225         0.00000000       0.00000000       0.00000000        -0.50581900       0.75347400       0.05603600         13
Al         6.88248909       2.27151077       0.80486588         0.00000000       0.00000000       0.00000000         1.46175300      -1.15512500       0.46437200         13
Al         1.36827728       4.80445791      -0.48219980         0.00000000       0.00000000       0.00000000        -1.25547200      -0.26019100       0.17372700         13
Al         8.71528475       4.14631843       0.88443956         0.00000000       0.00000000       0.00000000         1.14998200       0.20343300      -0.06216800         13
Al        14.28915525       0.38482938       1.49577502         0.00000000       0.00000000       0.00000000         0.17267100      -0.03712100      -0.03720400         13
Al         2.75963289       2.58305314      -0.13521007         0.00000000       0.00000000       0.00000000        -1.24294600      -0.35598700      -0.00549000         13
Al         6.20780230       4.83209567       0.96464950         0.00000000       0.00000000       0.00000000         1.66802500       1.17882900      -0.24656900         13
Al         3.81962746       4.89555621       0.26903683         0.00000000       0.00000000       0.00000000        -2.06562200       2.32077100       0.70391900         13
Al        12.67425622       3.71459708       0.49305101         0.00000000       0.00000000       0.00000000         0.13892100       0.10594900      -0.03857200         13
Al        -0.25410877       3.29219053       2.51124160         0.00000000       0.00000000       0.00000000         0.04864500      -0.03247500       0.03787100         13
24
pbc=[T, T, T] config_type=high_entropy dft_energy=-69.69779994 Lattice="15.12698100 0.00000000 0.00000000 1.21146900 3.81928000 0.00000000 2.67872000 -1.86461800 6.05217500" Properties=species:S:1:pos:R:3:velocities:R:3:dft_forces:R:3:Z:I:1
Al         6.86868310       4.60513989       3.83431345         0.00000000       0.00000000       0.00000000         0.35270800      -0.31300100      -0.52695700         13
Al         1.60262690      -0.16514415       1.27228981         0.00000000       0.00000000       0.00000000        -7.62186400       5.29886600       8.65723100         13
Al         9.89515291       3.87424290       2.86187432         0.00000000       0.00000000       0.00000000        -0.00026500      -0.08694900      -0.31930700         13
Al         5.79112035       2.87144713       5.44862819         0.00000000       0.00000000       0.00000000         0.16994300       1.56531500      -2.19366200         13
Al        17.90161777       3.52718251       6.02520096         0.00000000       0.00000000       0.00000000         0.37905000      -0.61545700       0.40339200         13
Al         3.31299193       1.22986216       4.99211561         0.00000000       0.00000000       0.00000000         0.26502600       0.35200900       0.99130700         13
Al        12.30931004       2.53807962       3.09880217         0.00000000       0.00000000       0.00000000         0.30837100      -0.27313200       0.55502000         13
Al         3.96170326       0.85503058       1.85267169         0.00000000       0.00000000       0.00000000         0.49414200      -1.66916600       0.80110900         13
Al        16.32784419       4.24821886       3.49987553         0.00000000       0.00000000       0.00000000        -0.15530200      -0.08925200      -0.07086300         13
Al         8.09779456       2.32289758       4.17025630         0.00000000       0.00000000       0.00000000        -0.14424900      -0.36266200       1.00054000         13
Al         1.91521352       1.86703170       2.91087601         0.00000000       0.00000000       0.00000000        -0.13335300       0.01730700      -0.20058800         13
Al         9.72995399       0.31677218      -0.38808983         0.00000000       0.00000000       0.00000000        -5.71020100       0.74066300       0.24453000         13
Al         9.33106886       2.53584346       0.80349808         0.00000000       0.00000000       0.00000000        -3.40715200       0.03720500       0.45599200         13
Al         7.16493196       3.85905591       0.57163921         0.00000000       0.00000000       0.00000000        -1.33233700      -5.56827700       3.85158600         13
Al        14.70728774       2.73622042       2.18498163         0.00000000       0.00000000       0.00000000         0.02466000       0.33672800      -1.16063200         13
Al         4.22392701       2.97424665       3.39589113         0.00000000       0.00000000       0.00000000         0.10629600       0.28423300       0.08155800         13
Al        14.02322480       3.86660324       4.44011816         0.00000000       0.00000000       0.00000000         0.68326700       4.89263800      -4.02886700         13
Al        10.08643822       3.54472619       5.39949224         0.00000000       0.00000000       0.00000000         0.99625500       5.90950500      -3.72609500         13
Al        11.70602722       5.05906943       4.25880203         0.00000000       0.00000000       0.00000000         0.52691500       0.07828400       0.03983300         13
Al        15.43091546       4.36031087       6.54901253         0.00000000       0.00000000       0.00000000         6.22822900      -0.46711900      -0.78593700         13
Al        17.07755444       5.94901058       5.27408146         0.00000000       0.00000000       0.00000000         2.45420300      -0.17332600      -0.20118600         13
Al         7.02723268       1.83770033       1.95258947         0.00000000       0.00000000       0.00000000        -0.50078900       0.36151400      -0.27184800         13
Al        11.05617714       0.84433199       1.71221142         0.00000000       0.00000000       0.00000000        -0.82551100      -4.97779600       3.90646100         13
Al         7.74245532       4.41664337       6.29761746         0.00000000       0.00000000       0.00000000         6.84195700      -5.27813200      -7.50261800         13
3
pbc=[T, T, T] config_type=high_entropy dft_energy=-8.96380472 Lattice="8.59161000 0.00000000 0.00000000 0.07563700 2.22783000 0.00000000 0.35462600 -1.02357800 2.68356200" Properties=species:S:1:pos:R:3:velocities:R:3:dft_forces:R:3:Z:I:1
Al         1.70319139       2.77314310       2.07884423         0.00000000       0.00000000       0.00000000         0.53476200      -0.01334800      -0.08389400         13
Al         7.76296543       1.75107972       2.46046188         0.00000000       0.00000000       0.00000000        -0.01705200      -0.02370100       0.00513800         13
Al         5.29707487       2.93526344       2.81919792         0.00000000       0.00000000       0.00000000        -0.51771000       0.03704900       0.07875600         13
3
pbc=[T, T, T] config_type=high_entropy dft_energy=-8.59986651 Lattice="7.12330700 0.00000000 0.00000000 0.80488300 5.88023300 0.00000000 1.09018300 0.52320000 1.99357400" Properties=species:S:1:pos:R:3:velocities:R:3:dft_forces:R:3:Z:I:1
Al         9.43020762       4.59241726       1.13901474         0.00000000       0.00000000       0.00000000        -0.18320500       0.00422600       0.16863200         13
Al         6.42798432       4.22115218       2.24538046         0.00000000       0.00000000       0.00000000         0.15238900       0.10063600      -0.15373100         13
Al         6.88346409       1.11813203       0.50293904         0.00000000       0.00000000       0.00000000         0.03081600      -0.10486200      -0.01490100         13
20
pbc=[T, T, T] config_type=high_entropy dft_energy=-55.93204581 Lattice="6.57464800 0.00000000 0.00000000 2.70750000 11.05547400 0.00000000 1.35736900 -0.08472900 8.86121000" Properties=species:S:1:pos:R:3:velocities:R:3:dft_forces:R:3:Z:I:1
Al         8.08410151       1.19757683       6.50190524         0.00000000       0.00000000       0.00000000         0.02147000       0.07845800       0.04694900         13
Al         7.50842424       9.17852555      -0.11103895         0.00000000       0.00000000       0.00000000         0.00098800      -0.03188200      -0.00883900         13
Al         3.82820373       1.40677948      -0.25955097         0.00000000       0.00000000       0.00000000        -0.02246700       0.06744400      -0.04146800         13
Al         2.59076542       7.28386979       2.84558314         0.00000000       0.00000000       0.00000000         0.00040200      -0.03200900       0.03325700         13
Al        10.41955770       9.07474267       5.58387434         0.00000000       0.00000000       0.00000000        -0.02273300      -0.01868700      -0.04776200         13
Al         7.95947794       6.89527631       6.22340141         0.00000000       0.00000000       0.00000000         0.02935200      -0.08344300       0.05765400         13
Al         1.45045482       4.10954291       4.11116961         0.00000000       0.00000000       0.00000000         0.01055900      -0.00962100       0.08485300         13
Al         3.65612521       6.98652423      -0.53699634         0.00000000       0.00000000       0.00000000        -0.04549000      -0.09647900      -0.02396300         13
Al         5.13261802       2.37506831       4.79725070         0.00000000       0.00000000       0.00000000         0.00171300       0.03421500       0.08214800         13
Al         5.33301836      11.95976296       3.12525324         0.00000000       0.00000000       0.00000000         0.00436100       0.00165300      -0.01615200         13
Al         3.93711776       4.17453969       1.81167902         0.00000000       0.00000000       0.00000000         0.03122100       0.00510700      -0.03276300         13
Al         5.94321436      -0.34635236       2.89204286         0.00000000       0.00000000       0.00000000        -0.02706300      -0.06216200       0.01801900         13
Al         5.88491120       8.57170537       2.89636029         0.00000000       0.00000000       0.00000000         0.03561700       0.07637900      -0.01353800         13
Al         4.96629116       5.82454416       4.80792638         0.00000000       0.00000000       0.00000000        -0.02930300      -0.04101300       0.10280200         13
Al         7.06402769      10.23570938       5.91507877         0.00000000       0.00000000       0.00000000         0.00382400       0.02626100      -0.01617100         13
Al         3.29448316       4.05064179       7.27792740         0.00000000       0.00000000       0.00000000        -0.01730400       0.01631100      -0.00669900         13
Al         6.57816601       4.06898684       7.36818695         0.00000000       0.00000000       0.00000000         0.00071300       0.00339800      -0.00229900         13
Al         8.02543085      -0.81843326       0.22935638         0.00000000       0.00000000       0.00000000         0.00656500       0.04581300       0.03838500         13
Al         0.37032734       2.46683237       1.06853138         0.00000000       0.00000000       0.00000000         0.00863300       0.01391500      -0.10076400         13
Al         6.79438572       5.95201216       0.86706849         0.00000000       0.00000000       0.00000000         0.00894100       0.00634300      -0.15364900         13
2
pbc=[T, T, T] config_type=high_entropy dft_energy=0.15122229 Lattice="5.37718500 0.00000000 0.00000000 2.47438200 5.98329300 0.00000000 0.08446800 0.64247600 1.76149900" Properties=species:S:1:pos:R:3:velocities:R:3:dft_forces:R:3:Z:I:1
Al         4.04360008       5.01578146       0.21055290         0.00000000       0.00000000       0.00000000         0.10330800      -0.22332900       0.06704700         13
Al         4.45137586       1.87335873       0.50531383         0.00000000       0.00000000       0.00000000        -0.10330800       0.22332900      -0.06704700         13
10
pbc=[T, T, T] config_type=high_entropy dft_energy=-35.28775214 Lattice="12.55069300 0.00000000 0.00000000 2.22402700 3.87751400 0.00000000 0.78515500 0.68754100 3.90333800" Properties=species:S:1:pos:R:3:velocities:R:3:dft_forces:R:3:Z:I:1
Al         8.62115668       1.99591887       3.08815634         0.00000000       0.00000000       0.00000000        -0.23251200      -0.19765400       0.05457500         13
Al        11.73229413       3.52454296       2.00326640         0.00000000       0.00000000       0.00000000         0.13383600      -0.19507100      -0.21991100         13
Al         6.90108397       3.04522406       1.03217156         0.00000000       0.00000000       0.00000000        -0.06494500       0.14389600      -0.31381400         13
Al        11.76887120       0.92433302       2.58110470         0.00000000       0.00000000       0.00000000         0.05326200      -0.01567800       0.09313000         13
Al        10.05155682       1.93621641       0.60752821         0.00000000       0.00000000       0.00000000         0.20925900       0.32834000      -0.01911500         13
Al         0.75836671       1.47840618      -0.78226618         0.00000000       0.00000000       0.00000000        -0.01741000       0.13976200      -0.02351500         13
Al        14.88023360       3.12735204       0.63687297         0.00000000       0.00000000       0.00000000        -0.09538400      -0.19235100      -0.03324900         13
Al         2.41860648       0.48464849       1.19451229         0.00000000       0.00000000       0.00000000         0.07665900       0.01396800      -0.08719300         13
Al         5.33633961       2.62138283       3.31210175         0.00000000       0.00000000       0.00000000         0.24076700      -0.31373400       0.36962100         13
Al         6.91945187       0.42337440       1.69448527         0.00000000       0.00000000       0.00000000        -0.30353200       0.28852100       0.17947200         13
2
pbc=[T, T, T] config_type=high_entropy dft_energy=-6.24748396 Lattice="4.47897200 0.00000000 0.00000000 -2.18597700 4.69479700 0.00000000 0.23401200 1.13325800 2.20123700" Properties=species:S:1:pos:R:3:velocities:R:3:dft_forces:R:3:Z:I:1
Al         1.64368658       3.11763661      -0.09947322         0.00000000       0.00000000       0.00000000         0.02280700      -0.03259200      -0.00748900         13
Al         2.96533932       1.89547766       2.09901848         0.00000000       0.00000000       0.00000000        -0.02280700       0.03259200       0.00748900         13
3
pbc=[T, T, T] config_type=high_entropy dft_energy=-5.23378227 Lattice="2.87832800 0.00000000 0.00000000 1.06367200 3.07188700 0.00000000 0.87627300 0.04451300 5.43448900" Properties=species:S:1:pos:R:3:velocities:R:3:dft_forces:R:3:Z:I:1
Al         0.79895851       1.58536758       1.38300168         0.00000000       0.00000000       0.00000000         0.77844300       0.94300400      -8.94976000         13
Al         3.69777358       1.56734269       3.63423042         0.00000000       0.00000000       0.00000000         0.63288600       1.28435000       8.98315200         13
Al         2.25540739       0.36600670       2.51053368         0.00000000       0.00000000       0.00000000        -1.41132900      -2.22735400      -0.03339200         13
15
pbc=[T, T, T] config_type=high_entropy dft_energy=-53.12747990 Lattice="9.17309500 0.00000000 0.00000000 0.47723200 9.01875000 0.00000000 0.44191100 2.07261500 3.68460900" Properties=species:S:1:pos:R:3:velocities:R:3:dft_forces:R:3:Z:I:1
Al         9.22618484       1.98709095       0.04438274         0.00000000       0.00000000       0.00000000        -0.05324200      -0.15007900      -0.00576600         13
Al         4.58729595       6.20113520      -0.13606074         0.00000000       0.00000000       0.00000000         0.02945500      -0.06705300       0.11200200         13
Al         5.55302719       8.91892189       0.84409536         0.00000000       0.00000000       0.00000000         0.06024100       0.10445800      -0.05581400         13
Al         6.86908874       4.16061369       3.17865584         0.00000000       0.00000000       0.00000000        -0.06312800       0.15865300      -0.03731200         13
Al         4.80434578       2.71973244       1.72619001         0.00000000       0.00000000       0.00000000         0.00354700      -0.03059100      -0.05713100         13
Al         1.74442982      10.40850342       2.73416906         0.00000000       0.00000000       0.00000000        -0.02093900       0.08867200       0.03639600         13
Al         4.31466808       5.50325824       2.66110663         0.00000000       0.00000000       0.00000000         0.11508200       0.02150400      -0.01950700         13
Al         1.25019717       8.04185542       4.23325525         0.00000000       0.00000000       0.00000000        -0.08548900       0.18184900      -0.19016000         13
Al         7.74793993       4.36322645       0.44712317         0.00000000       0.00000000       0.00000000        -0.05275800      -0.06739000      -0.05895700         13
Al         7.41920203       1.54026950       2.39294898         0.00000000       0.00000000       0.00000000        -0.16253100       0.35548700       0.14038700         13
Al         2.81041404       7.74937899       1.71240362         0.00000000       0.00000000       0.00000000        -0.02082800       0.03067300      -0.03256200         13
Al         2.15201565       3.82178237       1.28900799         0.00000000       0.00000000       0.00000000         0.15892400      -0.29628400       0.16881400         13
Al         2.72209859       1.15737747       0.30631216         0.00000000       0.00000000       0.00000000        -0.12003900       0.08178700      -0.07836000         13
Al         6.83533806       6.68521780       1.66262308         0.00000000       0.00000000       0.00000000         0.08866000      -0.13886300       0.11854300         13
Al        -0.06686762       8.37314270       1.58939163         0.00000000       0.00000000       0.00000000         0.12304500      -0.27282300      -0.04057400         13
15
pbc=[T, T, T] config_type=high_entropy dft_energy=-46.10275932 Lattice="11.11549500 0.00000000 0.00000000 1.76017600 10.91052300 0.00000000 1.42601400 0.75589000 3.40304000" Properties=species:S:1:pos:R:3:velocities:R:3:dft_forces:R:3:Z:I:1
Al        10.86833959       7.83924086       2.42666933         0.00000000       0.00000000       0.00000000         0.09919000       0.16795700       0.01664700         13
Al         2.97812438       6.83024590       3.44811094         0.00000000       0.00000000       0.00000000         0.42598300       0.52437000      -0.22014800         13
Al         6.47300616       9.89723425       0.27066801         0.00000000       0.00000000       0.00000000         0.07772800       0.11422000       0.00285400         13
Al         7.88904587       6.94465291       1.75536319         0.00000000       0.00000000       0.00000000        -0.10823700       0.00735600       0.08929000         13
Al         4.12960544       8.27915127       0.12297706         0.00000000       0.00000000       0.00000000        -0.20566400      -0.09391200      -0.06618200         13
Al         2.39504824       3.34007017       0.34688358         0.00000000       0.00000000       0.00000000         0.22271400      -0.11198600      -0.02793800         13
Al         2.18874503      10.19551442       2.26567277         0.00000000       0.00000000       0.00000000         0.01912300      -0.04562500      -0.03319700         13
Al         7.89755990       4.15458612       0.32618531         0.00000000       0.00000000       0.00000000        -0.30624000      -0.14878500       0.15699100         13
Al        10.93636798       2.77690816       1.50587871         0.00000000       0.00000000       0.00000000        -0.22181500      -0.46477100       0.20841200         13
Al         1.77649101       0.89631300      -0.90144948         0.00000000       0.00000000       0.00000000        -0.02592500      -0.17486100       0.01188100         13
Al        10.19164222       5.46885935       1.18261575         0.00000000       0.00000000       0.00000000        -0.14125600       0.06123100       0.07126300         13
Al         1.41009738       4.81787695       2.47696214         0.00000000       0.00000000       0.00000000         0.05839100      -0.13092200      -0.06739600         13
Al         6.60067372       3.30106877       2.84091484         0.00000000       0.00000000       0.00000000         0.09478800      -0.15648800      -0.03598200         13
Al         9.83748273      11.37126845       1.08220023         0.00000000       0.00000000       0.00000000        -0.01437900       0.14631100       0.04483400         13
Al         4.73942124       4.73672020       1.17534252         0.00000000       0.00000000       0.00000000         0.02560000       0.30590400      -0.15132900         13
15
pbc=[T, T, T] config_type=high_entropy dft_energy=-40.09224886 Lattice="9.73820100 0.00000000 0.00000000 4.30788800 8.17764700 0.00000000 0.56666300 0.89118100 6.57373500" Properties=species:S:1:pos:R:3:velocities:R:3:dft_forces:R:3:Z:I:1
Al         7.02315030       5.19208042       4.31452209         0.00000000       0.00000000       0.00000000         0.01023100      -0.12419400      -0.01870500         13
Al        11.77460292       1.55771937       2.98465235         0.00000000       0.00000000       0.00000000         0.05018200       0.15478200       0.05985000         13
Al         7.12913765       4.91606791       0.95762853         0.00000000       0.00000000       0.00000000         0.05858100      -0.00575000      -0.01138300         13
Al        10.40731790       4.79211806       3.06893604         0.00000000       0.00000000       0.00000000        -0.04064900      -0.02421500       0.02304100         13
Al         3.85483119       4.45190530       1.88556033         0.00000000       0.00000000       0.00000000         0.01074300      -0.09406900       0.14109300         13
Al         8.64367581       2.07361131       4.25605023         0.00000000       0.00000000       0.00000000         0.03336300       0.02912400       0.02967900         13
Al         5.75397168       1.89701799       0.30223312         0.00000000       0.00000000       0.00000000         0.07517100       0.04843200      -0.02633200         13
Al         5.37632988       2.03458238       3.76907731         0.00000000       0.00000000       0.00000000        -0.09520500       0.05641100       0.00400900         13
Al         9.30561796       2.41495581       0.70136610         0.00000000       0.00000000       0.00000000        -0.02705400      -0.10149500       0.04060900         13
Al        12.18179581       7.50832564       1.33811201         0.00000000       0.00000000       0.00000000        -0.10601500      -0.00205200      -0.04422300         13
Al         4.40342440      -0.67551452       2.14413223         0.00000000       0.00000000       0.00000000         0.09693200      -0.04493500      -0.04902100         13
Al         2.50475520       3.01630416      -1.04852775         0.00000000       0.00000000       0.00000000         0.03893200      -0.09997300      -0.13666200         13
Al        10.36930820       7.20513377       5.58641352         0.00000000       0.00000000       0.00000000         0.01976700       0.07487000       0.01540800         13
Al         4.09590978       7.00935554       4.42578603         0.00000000       0.00000000       0.00000000        -0.06655200       0.01427500      -0.01373700         13
Al         6.52487759       8.78777406       6.38869390         0.00000000       0.00000000       0.00000000        -0.05842700       0.11878800      -0.01362400         13
2
pbc=[T, T, T] config_type=high_entropy dft_energy=-2.33603392 Lattice="5.76229000 0.00000000 0.00000000 1.46277900 4.81596800 0.00000000 0.91583200 0.59643500 1.63092100" Properties=species:S:1:pos:R:3:velocities:R:3:dft_forces:R:3:Z:I:1
Al         5.53937013       2.39042763       1.60345348         0.00000000       0.00000000       0.00000000         0.28643400       0.30451300       0.09041200         13
Al         2.32601176       4.67417829       1.16358325         0.00000000       0.00000000       0.00000000        -0.28643400      -0.30451300      -0.09041200         13
5
pbc=[T, T, T] config_type=high_entropy dft_energy=-17.35220391 Lattice="9.93956900 0.00000000 0.00000000 0.63003600 2.87744200 0.00000000 0.11899200 0.19245100 3.95045100" Properties=species:S:1:pos:R:3:velocities:R:3:dft_forces:R:3:Z:I:1
Al         0.43446144       1.37735124       2.18264063         0.00000000       0.00000000       0.00000000        -0.00421800      -0.01002500      -0.00367200         13
Al        -1.71035095       0.08240815       0.25767306         0.00000000       0.00000000       0.00000000        -0.03861000       0.03838800      -0.00460700         13
Al         2.43721621       2.44344797       0.14945175         0.00000000       0.00000000       0.00000000         0.04276200      -0.03607400       0.02255400         13
Al         3.93869058       0.81167908       2.08435602         0.00000000       0.00000000       0.00000000        -0.16197200       0.03095400       0.06082400         13
Al         6.83397094       1.88461431       2.28700610         0.00000000       0.00000000       0.00000000         0.16203900      -0.02324300      -0.07509900         13
2
pbc=[T, T, T] config_type=high_entropy dft_energy=-5.12064312 Lattice="8.80077900 0.00000000 0.00000000 0.46228100 3.51394400 0.00000000 0.58956400 0.50302800 2.10044600" Properties=species:S:1:pos:R:3:velocities:R:3:dft_forces:R:3:Z:I:1
Al         2.15312118       1.56248595       1.88045163         0.00000000       0.00000000       0.00000000         0.59697300       0.02511100      -0.14719900         13
Al         4.89726554       2.24859057      -0.02415580         0.00000000       0.00000000       0.00000000        -0.59697300      -0.02511100       0.14719900         13
3
pbc=[T, T, T] config_type=high_entropy dft_energy=-8.30062202 Lattice="7.10531900 0.00000000 0.00000000 0.66558900 6.36895200 0.00000000 0.76759900 0.45479300 2.21818800" Properties=species:S:1:pos:R:3:velocities:R:3:dft_forces:R:3:Z:I:1
Al         5.17113574       3.21238781       0.58452839         0.00000000       0.00000000       0.00000000         0.15547700      -0.09596000      -0.05900200         13
Al         7.54261575       6.73392512       1.95449950         0.00000000       0.00000000       0.00000000         0.01511200      -0.00044800      -0.02448400         13
Al         1.61281661       3.33895507       0.46592350         0.00000000       0.00000000       0.00000000        -0.17058900       0.09640900       0.08348500         13
22
pbc=[T, T, T] config_type=high_entropy dft_energy=-71.44436602 Lattice="7.67380200 0.00000000 0.00000000 0.69240500 7.69892600 0.00000000 2.37751800 2.83709600 4.99532500" Properties=species:S:1:pos:R:3:velocities:R:3:dft_forces:R:3:Z:I:1
Al         3.56406291       8.19236517       2.75859286         0.00000000       0.00000000       0.00000000         0.18640900      -0.27367000      -0.26696500         13
Al         7.25819987       3.67582503       1.65914655         0.00000000       0.00000000       0.00000000         0.29525000       0.17183000      -0.02897300         13
Al         8.32138683       7.69698877       1.93508719         0.00000000       0.00000000       0.00000000         0.40151300       0.23171500      -0.02024600         13
Al         3.52358247       3.30527517       0.72574908         0.00000000       0.00000000       0.00000000        -0.26134700      -0.23681900       0.37583500         13
Al         3.86455474       7.56540479       5.45264594         0.00000000       0.00000000       0.00000000         0.25859800       0.00682400       0.44041300         13
Al         9.91980773      10.11259207       2.53453982         0.00000000       0.00000000       0.00000000        -0.52452000      -0.03739300      -0.37192700         13
Al         1.90040675       6.60392878       3.99037284         0.00000000       0.00000000       0.00000000        -0.40929600      -0.20408000      -0.27821500         13
Al         4.47323568       6.04666523       3.53600403         0.00000000       0.00000000       0.00000000        -0.11160200       0.30506600       0.36704700         13
Al         5.87592429       8.03715653       3.84224901         0.00000000       0.00000000       0.00000000         0.22098000       0.19548700      -0.29083300         13
Al         6.94744536       2.08170524       3.72385316         0.00000000       0.00000000       0.00000000        -0.19574900       0.03256200      -0.05066800         13
Al         2.58718315       4.53356674       2.77318424         0.00000000       0.00000000       0.00000000        -0.16104200       0.45829700      -0.05802500         13
Al         8.50779605       3.94219108       4.52141573         0.00000000       0.00000000       0.00000000        -0.02114000       0.19088200      -0.13553100         13
Al         4.02360859       8.60973891       0.24186792         0.00000000       0.00000000       0.00000000         0.10630600       0.22087600      -0.17118800         13
Al         7.10989071       5.76232322       3.31697334         0.00000000       0.00000000       0.00000000         0.39329000      -0.29569500      -0.00109600         13
Al        11.00841044       6.29695663       1.14916907         0.00000000       0.00000000       0.00000000        -0.25856500       0.01260600       0.14282500         13
Al         5.11101965       3.97257404       2.76029574         0.00000000       0.00000000       0.00000000         0.26042400      -0.32612600      -0.12375000         13
Al         3.67831060       2.45289789       4.16575940         0.00000000       0.00000000       0.00000000         0.00499900      -0.16582900       0.19563400         13
Al         5.41345472       4.86310442       0.35658078         0.00000000       0.00000000       0.00000000         0.22327400      -0.23086600      -0.09231600         13
Al         5.35191688       1.81610079       1.73085340         0.00000000       0.00000000       0.00000000        -0.07380300      -0.09541600       0.17430800         13
Al         9.83594323       9.11806999       4.85736656         0.00000000       0.00000000       0.00000000        -0.36975600      -0.06352200       0.20612600         13
Al         5.75513057       7.07657152       1.49363278         0.00000000       0.00000000       0.00000000         0.02124700      -0.06549000      -0.13178000         13
Al         3.20390363       4.68070110       5.27396659         0.00000000       0.00000000       0.00000000         0.01452800       0.16876100       0.11932400         13
2
pbc=[T, T, T] config_type=high_entropy dft_energy=1.93242286 Lattice="5.19139600 0.00000000 0.00000000 1.54198300 4.42895300 0.00000000 0.85307900 -0.27254500 1.54653400" Properties=species:S:1:pos:R:3:velocities:R:3:dft_forces:R:3:Z:I:1
Al         5.53551192       0.68284051       0.10132091         0.00000000       0.00000000       0.00000000         0.46316300       0.41353900      -0.11228500         13
Al         5.74500200       3.41660228       1.64604383         0.00000000       0.00000000       0.00000000        -0.46316300      -0.41353900       0.11228500         13
5
pbc=[T, T, T] config_type=high_entropy dft_energy=-11.68221275 Lattice="7.14929500 0.00000000 0.00000000 3.17929300 6.00919400 0.00000000 0.37923600 0.71673400 1.91770600" Properties=species:S:1:pos:R:3:velocities:R:3:dft_forces:R:3:Z:I:1
Al         3.86652242       1.88831077      -0.81829625         0.00000000       0.00000000       0.00000000         0.07910400      -0.05791000       0.09904000         13
Al         6.57819174       1.39849817      -0.00031553         0.00000000       0.00000000       0.00000000         0.00388600       0.08315700      -0.11990200         13
Al         4.37200994       5.52109853       0.99821747         0.00000000       0.00000000       0.00000000         0.20935800      -0.03880200       0.03260200         13
Al         2.05299368       4.14077917       2.17799415         0.00000000       0.00000000       0.00000000        -0.16199300      -0.10694900       0.10495200         13
Al         7.16981783       5.73177918       1.20176611         0.00000000       0.00000000       0.00000000        -0.13035400       0.12050300      -0.11669100         13
2
pbc=[T, T, T] config_type=high_entropy dft_energy=-4.21416575 Lattice="7.82141100 0.00000000 0.00000000 0.61383200 2.48221100 0.00000000 0.31020100 0.28205300 2.08482400" Properties=species:S:1:pos:R:3:velocities:R:3:dft_forces:R:3:Z:I:1
Al         2.20175300       0.32977607       2.07302431         0.00000000       0.00000000       0.00000000         1.95631200      -0.48574300      -0.28391400         13
Al         7.71891748       0.70435706       1.25206394         0.00000000       0.00000000       0.00000000        -1.95631200       0.48574300       0.28391400         13
4
pbc=[T, T, T] config_type=high_entropy dft_energy=-7.82463887 Lattice="9.37096900 0.00000000 0.00000000 0.31776600 2.08719200 0.00000000 1.01805800 -0.68214900 3.60209200" Properties=species:S:1:pos:R:3:velocities:R:3:dft_forces:R:3:Z:I:1
Al         3.62937049      -0.06803636      -0.23874598         0.00000000       0.00000000       0.00000000        -1.25060700       0.04234400      -0.12346400         13
Al         2.50565116       3.05322488       3.48850581         0.00000000       0.00000000       0.00000000         1.26427500      -0.16876900       0.02654200         13
Al         6.03470103       0.49134706      -0.13703815         0.00000000       0.00000000       0.00000000        -3.49471400      -0.19130800       0.01598800         13
Al         9.47100983       2.42978175       3.49636982         0.00000000       0.00000000       0.00000000         3.48104600       0.31773300       0.08093400         13
17
pbc=[T, T, T] config_type=high_entropy dft_energy=-48.93801409 Lattice="6.36866200 0.00000000 0.00000000 1.91480200 5.52575200 0.00000000 0.45036000 -2.34521900 8.24301900" Properties=species:S:1:pos:R:3:velocities:R:3:dft_forces:R:3:Z:I:1
Al         4.76946298       2.36252668       1.20311371         0.00000000       0.00000000       0.00000000        -3.47166100       0.32220500      -0.42217900         13
Al         6.67190613       5.58125630       1.23022594         0.00000000       0.00000000       0.00000000         1.68973600      -0.16603900      -2.41398100         13
Al         7.78393887       4.31894508       2.81883911         0.00000000       0.00000000       0.00000000         2.04011100       0.15406300       0.58776800         13
Al         4.56374554       4.42827301       5.89449697         0.00000000       0.00000000       0.00000000         0.22713100      -0.39015300      -0.94862000         13
Al         3.57501621       4.84117327       2.69854386         0.00000000       0.00000000       0.00000000         0.18421600      -0.02570400      -0.18029800         13
Al         5.58783374       3.97599992       2.66130304         0.00000000       0.00000000       0.00000000        -2.16962200       0.51307300       2.62579000         13
Al         0.52701338       5.55668160       6.93749117         0.00000000       0.00000000       0.00000000         1.81609500      -2.68922600      -1.50938100         13
Al         9.32908796       6.17164398       9.45275793         0.00000000       0.00000000       0.00000000         3.72715700      -0.29374100      -7.73927900         13
Al         6.72622159       3.63866323       4.74453549         0.00000000       0.00000000       0.00000000        -0.42759200       0.79655500       2.35495100         13
Al         2.50126374       0.64195515       0.99868797         0.00000000       0.00000000       0.00000000        -1.20089600       3.08002900      -0.70826000         13
Al         2.45715729       5.10021473       4.73785333         0.00000000       0.00000000       0.00000000        -0.29045100      -0.89942800       2.19245900         13
Al         4.71358608       6.37726155       7.34123062         0.00000000       0.00000000       0.00000000        -2.05270200      -0.39952300       1.44222100         13
Al         4.29129950       8.69858535       6.99549688         0.00000000       0.00000000       0.00000000        -1.08549900       2.02335000      -0.19026600         13
Al         0.48232945       1.58169279       2.84994037         0.00000000       0.00000000       0.00000000        -0.36651500      -2.56092000       3.21836100         13
Al         6.70804823       7.87857734       7.32465401         0.00000000       0.00000000       0.00000000         0.85294100       0.56210400      -0.00388100         13
Al         5.57041554       7.12558011       4.18952521         0.00000000       0.00000000       0.00000000         0.03226100       0.00707300      -0.05371400         13
Al         2.37959067       7.12847681       5.82805662         0.00000000       0.00000000       0.00000000         0.49528800      -0.03372000       1.74830900         13
5
pbc=[T, T, T] config_type=high_entropy dft_energy=-15.97253382 Lattice="4.57737400 0.00000000 0.00000000 2.17163200 4.34427000 0.00000000 2.01701200 0.52694400 6.88205900" Properties=species:S:1:pos:R:3:velocities:R:3:dft_forces:R:3:Z:I:1
Al         5.62827201       2.18991376       4.44785540         0.00000000       0.00000000       0.00000000        -0.00004400      -0.00550300       0.04067700         13
Al         5.83247840       2.38628501       1.41180850         0.00000000       0.00000000       0.00000000        -0.00459900      -0.03238700       0.21826100         13
Al         3.51794554       3.90840884       2.87235442         0.00000000       0.00000000       0.00000000         0.01779200      -0.02523600      -0.00774600         13
Al         3.54466908       0.82268745       0.60463518         0.00000000       0.00000000       0.00000000         0.00793300      -0.02731100      -0.15111900         13
Al         3.29417473       0.54009349       5.67985928         0.00000000       0.00000000       0.00000000        -0.02108200       0.09043800      -0.10007300         13
2
pbc=[T, T, T] config_type=high_entropy dft_energy=-4.83136500 Lattice="6.37800400 0.00000000 0.00000000 0.47467800 2.10783800 0.00000000 0.57286100 0.23163600 2.40160400" Properties=species:S:1:pos:R:3:velocities:R:3:dft_forces:R:3:Z:I:1
Al         2.04337209       1.27593700       0.22509774         0.00000000       0.00000000       0.00000000        -0.09667800       0.00844800       0.02159400         13
Al         5.48282894       0.98198392       2.04455970         0.00000000       0.00000000       0.00000000         0.09667800      -0.00844800      -0.02159400         13
2
pbc=[T, T, T] config_type=high_entropy dft_energy=-1.37310386 Lattice="6.50471800 0.00000000 0.00000000 2.30446700 5.76594500 0.00000000 0.54927400 0.79435400 1.68973800" Properties=species:S:1:pos:R:3:velocities:R:3:dft_forces:R:3:Z:I:1
Al         7.37520757       1.82722384       1.52552473         0.00000000       0.00000000       0.00000000        -0.46148000       0.08595400       0.08507900         13
Al         6.18682720       4.72495908       0.00266797         0.00000000       0.00000000       0.00000000         0.46148000      -0.08595400      -0.08507900         13
3
pbc=[T, T, T] config_type=high_entropy dft_energy=-9.75522148 Lattice="7.53262300 0.00000000 0.00000000 0.72814500 2.25774100 0.00000000 0.36348900 -1.03581300 2.72488000" Properties=species:S:1:pos:R:3:velocities:R:3:dft_forces:R:3:Z:I:1
Al         5.01452598       1.85791523       0.86417578         0.00000000       0.00000000       0.00000000         0.08213900       0.02450500      -0.00009600         13
Al         0.04764217       2.29178655       0.85647017         0.00000000       0.00000000       0.00000000         0.27712900       0.01041700      -0.08268500         13
Al         2.46936095       1.44520578       0.86961178         0.00000000       0.00000000       0.00000000        -0.35926800      -0.03492200       0.08278100         13
2
pbc=[T, T, T] config_type=high_entropy dft_energy=-5.64760719 Lattice="8.58285000 0.00000000 0.00000000 0.97755200 2.18112200 0.00000000 0.45415100 -0.84470600 3.12414600" Properties=species:S:1:pos:R:3:velocities:R:3:dft_forces:R:3:Z:I:1
Al         0.86410595       2.30199212       2.64633360         0.00000000       0.00000000       0.00000000         0.27424600      -0.14484100      -0.09828300         13
Al         3.86092986       1.40750525       1.15588642         0.00000000       0.00000000       0.00000000        -0.27424600       0.14484100       0.09828300         13
18
pbc=[T, T, T] config_type=high_entropy dft_energy=-62.03733920 Lattice="9.96476900 0.00000000 0.00000000 3.59535700 9.08213100 0.00000000 0.45913700 2.15188800 3.77761900" Properties=species:S:1:pos:R:3:velocities:R:3:dft_forces:R:3:Z:I:1
Al        11.78044137       8.10139526       2.40258979         0.00000000       0.00000000       0.00000000         0.89068300      -0.30430900      -0.32747000         13
Al         5.59386364       9.70539135       1.37355833         0.00000000       0.00000000       0.00000000         0.17102400      -0.92914200       0.02226400         13
Al         5.67628495       5.80656020       3.13831122         0.00000000       0.00000000       0.00000000        -0.00673300       1.08979800      -0.80808800         13
Al         3.21596013       5.05258371       3.83002930         0.00000000       0.00000000       0.00000000        -0.28692300       0.51017400      -0.16740200         13
Al         2.08399503       2.97889591       2.57201820         0.00000000       0.00000000       0.00000000        -0.39459800       0.31862800       0.03263500         13
Al        13.67746586      10.41995901       3.12319258         0.00000000       0.00000000       0.00000000        -1.01814200      -0.86612500       0.62233700         13
Al         7.02471922       3.80257099       1.75047066         0.00000000       0.00000000       0.00000000        -0.03991000       0.47262600       0.12970400         13
Al         8.32887804       5.95266887       3.01644256         0.00000000       0.00000000       0.00000000        -0.36905300       0.58824000      -0.02112100         13
Al        10.84287464       5.33248469       2.64849740         0.00000000       0.00000000       0.00000000         0.59655600       0.71437400      -0.16472900         13
Al         9.20823307       8.19003603       1.74811727         0.00000000       0.00000000       0.00000000        -0.87417700       0.25653000       0.14488300         13
Al         9.26266071       5.83404608       0.54379450         0.00000000       0.00000000       0.00000000        -0.13529400       0.20150800      -0.48706500         13
Al         9.58856436       3.35134231       1.43062763         0.00000000       0.00000000       0.00000000         0.39965700      -0.53585400      -0.54631000         13
Al         4.43702379       3.82159851       1.88621779         0.00000000       0.00000000       0.00000000         0.03916400       0.56697200      -0.09905200         13
Al         5.66297749       1.64767922       0.98987596         0.00000000       0.00000000       0.00000000        -0.51798900      -0.77126300      -0.73245900         13
Al         5.80315234       8.98985754       4.01740232         0.00000000       0.00000000       0.00000000        -0.00026200      -0.40998800       0.51321600         13
Al        10.72882664      10.42997519       3.13064408         0.00000000       0.00000000       0.00000000         0.31296500      -0.14193200       0.18729800         13
Al         7.78936617      10.57977505       3.20799522         0.00000000       0.00000000       0.00000000         0.58380000      -0.62880600       0.50077500         13
Al         8.14247984       1.29067828       0.09537919         0.00000000       0.00000000       0.00000000         0.64923200      -0.13143200       1.20058400         13
4
pbc=[T, T, T] config_type=high_entropy dft_energy=-11.72180372 Lattice="7.10434400 0.00000000 0.00000000 -2.66521200 8.01526900 0.00000000 0.61725300 0.48317500 2.49744900" Properties=species:S:1:pos:R:3:velocities:R:3:dft_forces:R:3:Z:I:1
Al         6.45363000       7.51120329       0.64181101         0.00000000       0.00000000       0.00000000        -0.23561100      -0.70776700       0.20590100         13
Al        10.70555413       6.55278053       1.35054870         0.00000000       0.00000000       0.00000000         0.18688800      -0.49491300       0.03554200         13
Al         4.99396153       3.94093438       0.32936326         0.00000000       0.00000000       0.00000000         0.20233300       0.71160900      -0.20061800         13
Al         8.25601655       4.56266641       0.92676527         0.00000000       0.00000000       0.00000000        -0.15361100       0.49107100      -0.04082500         13
3
pbc=[T, T, T] config_type=high_entropy dft_energy=-8.50433678 Lattice="13.08148900 0.00000000 0.00000000 0.50320000 3.62209200 0.00000000 1.37024600 -0.16045000 2.39571600" Properties=species:S:1:pos:R:3:velocities:R:3:dft_forces:R:3:Z:I:1
Al         3.21704624       1.79700171       1.32432863         0.00000000       0.00000000       0.00000000        -0.02608900      -0.02324900       0.01450100         13
Al         4.69690002      -0.10198200      -1.30568975         0.00000000       0.00000000       0.00000000        -0.59615100       0.12055500       0.34623900         13
Al         1.33564594       0.25409114       3.87953320         0.00000000       0.00000000       0.00000000         0.62224000      -0.09730600      -0.36074000         13
9
pbc=[T, T, T] config_type=high_entropy dft_energy=-29.79654105 Lattice="13.75829400 0.00000000 0.00000000 1.75340600 3.55969700 0.00000000 1.05186200 1.52489000 3.81938400" Properties=species:S:1:pos:R:3:velocities:R:3:dft_forces:R:3:Z:I:1
Al         8.25933388       0.46017152       0.09274835         0.00000000       0.00000000       0.00000000         0.43448600       0.03153700      -0.07233400         13
Al        16.09123005       5.44656545       3.59179890         0.00000000       0.00000000       0.00000000        -0.74930100       0.45490400       0.61667700         13
Al         4.95242822       1.98324048       2.11486231         0.00000000       0.00000000       0.00000000         0.31969200      -0.31912500      -0.74627800         13
Al         7.02329220       3.17289652       3.35073310         0.00000000       0.00000000       0.00000000         0.33884800      -0.14942900       0.21185300         13
Al        13.80031823       4.37409415       2.35752396         0.00000000       0.00000000       0.00000000         0.02529400      -0.12671800      -0.29057100         13
Al        11.95178358       3.02639377       3.81302205         0.00000000       0.00000000       0.00000000        -0.41485500       0.06146400       0.30693900         13
Al         2.17679590       1.18764347       0.94617492         0.00000000       0.00000000       0.00000000        -0.02357100       0.00515800      -0.03568300         13
Al         2.88802059       0.72584733       3.36023632         0.00000000       0.00000000       0.00000000         1.11299200      -0.62301200       0.25652000         13
Al         2.56217692       3.15482554       2.34241588         0.00000000       0.00000000       0.00000000        -1.04358500       0.66522200      -0.24712200         13
