2
pbc=[T, T, T] config_type=high_entropy dft_energy=-4.82674708 Lattice="6.11837900 0.00000000 0.00000000 0.34803700 5.23331300 0.00000000 0.77558000 0.31913700 2.68754200" Properties=species:S:1:pos:R:3:velocities:R:3:dft_forces:R:3:Z:I:1
Al         5.30714843       6.73715519       2.44699550         0.00000000       0.00000000       0.00000000        -0.21374500       0.06492500       0.04872200         13
Al         1.58481001       3.69513139      -0.22612933         0.00000000       0.00000000       0.00000000         0.21374500      -0.06492500      -0.04872200         13
2
pbc=[T, T, T] config_type=high_entropy dft_energy=2.06745463 Lattice="8.84348700 0.00000000 0.00000000 0.41673200 1.79676000 0.00000000 0.17408500 0.82743500 2.05667500" Properties=species:S:1:pos:R:3:velocities:R:3:dft_forces:R:3:Z:I:1
Al         8.22896148       1.21888360       1.02614707         0.00000000       0.00000000       0.00000000         0.04700400      -0.02203200       0.00119000         13
Al         2.85463723       1.02129262       1.06885341         0.00000000       0.00000000       0.00000000        -0.04700400       0.02203200      -0.00119000         13
3
pbc=[T, T, T] config_type=high_entropy dft_energy=-7.31653956 Lattice="7.32274800 0.00000000 0.00000000 1.77399100 5.95049200 0.00000000 0.58564200 -0.16060900 2.16827500" Properties=species:S:1:pos:R:3:velocities:R:3:dft_forces:R:3:Z:I:1
Al         4.00713427       2.01236391       1.10467811         0.00000000       0.00000000       0.00000000         0.04099200       0.40147100       0.07305100         13
Al         7.27865758       3.46288606       1.66248124         0.00000000       0.00000000       0.00000000        -0.09054000      -0.12270500       0.01740300         13
Al         2.83399186       5.41705525       0.68042220         0.00000000       0.00000000       0.00000000         0.04954900      -0.27876600      -0.09045400         13
2
pbc=[T, T, T] config_type=high_entropy dft_energy=-2.60626766 Lattice="4.77092100 0.00000000 0.00000000 0.17476400 5.89401600 0.00000000 0.45537200 0.24374200 1.92154700" Properties=species:S:1:pos:R:3:velocities:R:3:dft_forces:R:3:Z:I:1
Al         1.70485485       2.86912955       0.07263053         0.00000000       0.00000000       0.00000000        -0.09285600      -0.39217900       0.05669600         13
Al         4.37042852       1.12604797       1.45685556         0.00000000       0.00000000       0.00000000         0.09285600       0.39217900      -0.05669600         13
2
pbc=[T, T, T] config_type=high_entropy dft_energy=9.30743445 Lattice="3.61862200 0.00000000 0.00000000 0.38884600 3.60460400 0.00000000 0.48309000 0.52408300 1.44953800" Properties=species:S:1:pos:R:3:velocities:R:3:dft_forces:R:3:Z:I:1
Al         1.87674344       0.92828078       0.33407018         0.00000000       0.00000000       0.00000000         0.00917300      -0.00045900      -0.00273600         13
Al         4.12279970       2.99249838       1.05831564         0.00000000       0.00000000       0.00000000        -0.00917300       0.00045900       0.00273600         13
5
pbc=[T, T, T] config_type=high_entropy dft_energy=-12.75284779 Lattice="5.02089900 0.00000000 0.00000000 1.11704900 7.79801200 0.00000000 1.10064900 0.65271700 4.88294600" Properties=species:S:1:pos:R:3:velocities:R:3:dft_forces:R:3:Z:I:1
Al         2.06436547       3.51748640       1.33562541         0.00000000       0.00000000       0.00000000         0.07130200       0.00661700       0.06427500         13
Al         6.93989793       7.00047986       4.85332056         0.00000000       0.00000000       0.00000000         0.00596900       0.00366400       0.00343100         13
Al         4.57543555       5.31101509       3.14047063         0.00000000       0.00000000       0.00000000        -0.06506600       0.03501000      -0.06054500         13
Al         4.52326936       1.99588018       3.47841739         0.00000000       0.00000000       0.00000000        -0.07505100      -0.01110500      -0.06118300         13
Al         3.17172699       7.98883354       1.68382164         0.00000000       0.00000000       0.00000000         0.06284700      -0.03418600       0.05402200         13
15
pbc=[T, T, T] config_type=high_entropy dft_energy=-35.94150647 Lattice="8.69185100 0.00000000 0.00000000 1.07737100 8.40002500 0.00000000 3.99434400 0.47225100 8.39865300" Properties=species:S:1:pos:R:3:velocities:R:3:dft_forces:R:3:Z:I:1
Al         6.79921864       8.36319994       8.43145075         0.00000000       0.00000000       0.00000000         0.09109600      -0.12108000      -0.04451000         13
Al         7.20619716       2.19584281       5.85339179         0.00000000       0.00000000       0.00000000        -0.00937100       0.01344400      -0.03920100         13
Al         8.59367709       8.25642428       2.21054808         0.00000000       0.00000000       0.00000000        -0.04320800       0.06326600       0.05327500         13
Al         4.60892870       3.96546998       4.26766618         0.00000000       0.00000000       0.00000000         0.06706500      -0.03819900      -0.01904500         13
Al        12.86188801      10.49021933       7.01346358         0.00000000       0.00000000       0.00000000         0.12192300      -0.10709300      -0.10483200         13
Al         3.73406368       4.41263114      -0.33882748         0.00000000       0.00000000       0.00000000        -0.01410900       0.14043400      -0.10704000         13
Al         8.35621088       5.40484298       4.54115442         0.00000000       0.00000000       0.00000000        -0.14369400      -0.00069900      -0.08874400         13
Al        10.15832441       2.18276496       3.76300844         0.00000000       0.00000000       0.00000000        -0.03534800      -0.13627800       0.12319300         13
Al         4.85469442      -0.29888806       4.88835003         0.00000000       0.00000000       0.00000000        -0.00400600      -0.01563000      -0.06110200         13
Al         5.71824284       6.32257892       1.76975864         0.00000000       0.00000000       0.00000000        -0.05119300       0.06667200       0.07553700         13
Al         7.43226098       3.32567475       1.73608195         0.00000000       0.00000000       0.00000000        -0.14537900      -0.04761200       0.12366700         13
Al         8.99539230       5.21743412      -0.91962062         0.00000000       0.00000000       0.00000000         0.03131500       0.03379500      -0.10153000         13
Al        11.46763655       6.94758758       3.60214613         0.00000000       0.00000000       0.00000000         0.07910900       0.19144200       0.02825700         13
Al         9.18198530      -0.50121908       6.84266881         0.00000000       0.00000000       0.00000000        -0.01249400       0.04698500       0.00850300         13
Al         4.31446729       1.47343681       1.62755659         0.00000000       0.00000000       0.00000000         0.06829500      -0.08944600       0.15357100         13
2
pbc=[T, T, T] config_type=high_entropy dft_energy=0.69870431 Lattice="5.93427500 0.00000000 0.00000000 1.76973000 7.02240200 0.00000000 0.83144300 0.29458900 1.62818100" Properties=species:S:1:pos:R:3:velocities:R:3:dft_forces:R:3:Z:I:1
Al         0.91169285       1.15964415       0.71987472         0.00000000       0.00000000       0.00000000        -0.00645700       0.60660400      -0.11071300         13
Al         3.96535317       2.83424367       0.55200798         0.00000000       0.00000000       0.00000000         0.00645700      -0.60660400       0.11071300         13
3
pbc=[T, T, T] config_type=high_entropy dft_energy=-8.09139396 Lattice="10.74158000 0.00000000 0.00000000 1.34180300 2.67844600 0.00000000 1.41394800 1.14148900 3.59489300" Properties=species:S:1:pos:R:3:velocities:R:3:dft_forces:R:3:Z:I:1
Al         8.23033291       0.16030719       2.60543850         0.00000000       0.00000000       0.00000000         0.01517500      -0.00985000      -0.04733800         13
Al         3.62524393       4.44630275       3.92249312         0.00000000       0.00000000       0.00000000         0.12405600      -0.05526700      -0.03411500         13
Al         5.17325341       1.97196098       1.74469249         0.00000000       0.00000000       0.00000000        -0.13923100       0.06511700       0.08145300         13
4
pbc=[T, T, T] config_type=high_entropy dft_energy=-9.04990462 Lattice="13.14881100 0.00000000 0.00000000 0.65678900 4.61960600 0.00000000 1.66507600 0.69483300 3.08287200" Properties=species:S:1:pos:R:3:velocities:R:3:dft_forces:R:3:Z:I:1
Al         0.28097736       0.88970808       1.53003139         0.00000000       0.00000000       0.00000000         0.31741800       0.01454400      -0.19285100         13
Al         7.35189310       4.03241352       2.65573701         0.00000000       0.00000000       0.00000000        -0.05207000       0.16199700       0.04357800         13
Al         3.85017491       1.17329060       1.73383600         0.00000000       0.00000000       0.00000000         0.15764600      -0.17426600      -0.07275100         13
Al         8.74955302       5.33011196      -0.27334685         0.00000000       0.00000000       0.00000000        -0.42299500      -0.00227400       0.22202300         13
2
pbc=[T, T, T] config_type=high_entropy dft_energy=7.01202564 Lattice="5.01127600 0.00000000 0.00000000 0.77473800 4.05787500 0.00000000 0.64755800 0.40248000 1.47775300" Properties=species:S:1:pos:R:3:velocities:R:3:dft_forces:R:3:Z:I:1
Al         1.31201422       1.48915569       1.61611915         0.00000000       0.00000000       0.00000000        -0.32945500       0.60618800      -0.02176100         13
Al         3.10630126       0.17449741       0.38673193         0.00000000       0.00000000       0.00000000         0.32945500      -0.60618800       0.02176100         13
20
pbc=[T, T, T] config_type=high_entropy dft_energy=-52.46095430 Lattice="8.90568400 0.00000000 0.00000000 -2.58036100 11.08508900 0.00000000 0.37476300 4.31207600 7.38274200" Properties=species:S:1:pos:R:3:velocities:R:3:dft_forces:R:3:Z:I:1
Al        12.13434542      12.44928414       2.52234583         0.00000000       0.00000000       0.00000000        -0.05165500      -0.00230400       0.27153300         13
Al         9.00717527       4.63186205       4.62076425         0.00000000       0.00000000       0.00000000         0.10499400       0.03549700      -0.10537100         13
Al         7.27688980      12.09187138       0.42394823         0.00000000       0.00000000       0.00000000         0.21762000       0.01026400      -0.04566900         13
Al         9.85850747       8.29777537       6.06600869         0.00000000       0.00000000       0.00000000         0.08160300       0.04340400      -0.20096400         13
Al         6.97278068      10.20847320       6.51880693         0.00000000       0.00000000       0.00000000        -0.03038500       0.02720000      -0.07564500         13
Al         3.05044272       6.59928705       3.86523893         0.00000000       0.00000000       0.00000000         0.01613200      -0.04187700      -0.06954700         13
Al         8.72999254       9.85831512       3.10781861         0.00000000       0.00000000       0.00000000        -0.09566600      -0.12855100       0.12312700         13
Al        13.11857356      13.24175293       5.80104874         0.00000000       0.00000000       0.00000000        -0.03493400      -0.22596300       0.02871700         13
Al        11.56195057       9.19274766       1.52366566         0.00000000       0.00000000       0.00000000         0.05056400      -0.14328000       0.08267900         13
Al        13.15657769       9.78725824       4.48585740         0.00000000       0.00000000       0.00000000         0.01472700       0.02808500       0.08181200         13
Al         9.09302897      14.38451524       2.73914393         0.00000000       0.00000000       0.00000000         0.07724800       0.15447300       0.03689900         13
Al         6.11946442       8.76412432       1.07368255         0.00000000       0.00000000       0.00000000        -0.02355600      -0.11580100       0.06620700         13
Al         6.54715113      12.32457288       3.74444603         0.00000000       0.00000000       0.00000000        -0.00285900      -0.06983300       0.02482000         13
Al         8.89846203       6.61389708       1.72790155         0.00000000       0.00000000       0.00000000        -0.05110000       0.15290300       0.05064300         13
Al        12.47296531      10.28036776       7.82894150         0.00000000       0.00000000       0.00000000        -0.01567500       0.00400700      -0.01452500         13
Al         5.92773187       4.78465434       2.33807401         0.00000000       0.00000000       0.00000000        -0.21184300       0.12606700      -0.07771800         13
Al        10.24472492      15.08954049       5.96844141         0.00000000       0.00000000       0.00000000        -0.05549300       0.00166000      -0.12766900         13
Al         6.81540782       7.35693294       4.45097506         0.00000000       0.00000000       0.00000000         0.03769200       0.13821600      -0.11936400         13
Al         4.69840677       7.13215187       7.09745199         0.00000000       0.00000000       0.00000000        -0.14301600       0.17148000       0.02329800         13
Al         9.99261181      11.72982003       5.75269127         0.00000000       0.00000000       0.00000000         0.11560100      -0.16564700       0.04673700         13
2
pbc=[T, T, T] config_type=high_entropy dft_energy=-2.70491348 Lattice="6.21266900 0.00000000 0.00000000 0.40429200 6.06080400 0.00000000 0.88670400 0.69421500 1.65019600" Properties=species:S:1:pos:R:3:velocities:R:3:dft_forces:R:3:Z:I:1
Al         6.30211178       0.91142293       0.22939891         0.00000000       0.00000000       0.00000000        -0.00010000       0.00008900      -0.00026400         13
Al         0.29159123       3.94184894       0.22917219         0.00000000       0.00000000       0.00000000         0.00010000      -0.00008900       0.00026400         13
2
pbc=[T, T, T] config_type=high_entropy dft_energy=-5.46142668 Lattice="5.25958800 0.00000000 0.00000000 2.19016900 5.74660500 0.00000000 1.21477200 0.46231900 2.40539100" Properties=species:S:1:pos:R:3:velocities:R:3:dft_forces:R:3:Z:I:1
Al         6.75278210       3.33823882       2.62653296         0.00000000       0.00000000       0.00000000         0.09004000       0.22669700      -0.08656000         13
Al         1.85981534      -0.09167377       1.83661735         0.00000000       0.00000000       0.00000000        -0.09004000      -0.22669700       0.08656000         13
2
pbc=[T, T, T] config_type=high_entropy dft_energy=-5.81387049 Lattice="9.50987200 0.00000000 0.00000000 0.77614600 2.95486800 0.00000000 0.97977100 0.08427200 2.60519400" Properties=species:S:1:pos:R:3:velocities:R:3:dft_forces:R:3:Z:I:1
Al         5.34082037       1.39186357       2.87156630         0.00000000       0.00000000       0.00000000         0.51473400      -0.15116000      -0.19727100         13
Al         7.69355740      -0.08358537       0.59766048         0.00000000       0.00000000       0.00000000        -0.51473400       0.15116000       0.19727100         13
20
pbc=[T, T, T] config_type=high_entropy dft_energy=-72.90483225 Lattice="7.11211400 0.00000000 0.00000000 1.28606900 7.48372000 0.00000000 0.01261800 3.11320700 6.46789100" Properties=species:S:1:pos:R:3:velocities:R:3:dft_forces:R:3:Z:I:1
Al         5.80777533       8.28284698       3.88486521         0.00000000       0.00000000       0.00000000         0.06570300      -0.09332900       0.02918700         13
Al         5.74486080       3.13306253       3.14263035         0.00000000       0.00000000       0.00000000         0.08299300       0.09857800      -0.09957500         13
Al         3.06724432       2.67297122       2.40636206         0.00000000       0.00000000       0.00000000         0.05362400      -0.01382500       0.00766200         13
Al         2.59055028       5.39532419       6.20378162         0.00000000       0.00000000       0.00000000        -0.01533500       0.02932500      -0.06836000         13
Al         1.85431689       4.94790196       3.68263638         0.00000000       0.00000000       0.00000000        -0.09433600       0.18851200       0.16223000         13
Al         1.54217177       2.69440837       6.90437930         0.00000000       0.00000000       0.00000000        -0.05501200       0.16766400      -0.12091400         13
Al         6.24588590       3.52413366       5.94930026         0.00000000       0.00000000       0.00000000         0.06627700       0.16567900      -0.17631800         13
Al         3.21195704       7.50402400       3.08330137         0.00000000       0.00000000       0.00000000         0.05462700      -0.10011900       0.10058600         13
Al         5.24214780       2.84474025       0.40503428         0.00000000       0.00000000       0.00000000         0.03470300      -0.02968600      -0.05622300         13
Al         1.07276499       7.37466464       4.90380510         0.00000000       0.00000000       0.00000000        -0.04399700      -0.05729300       0.03075700         13
Al         3.62186008       3.14321153       5.02305498         0.00000000       0.00000000       0.00000000        -0.00769300       0.02621900       0.07959500         13
Al         4.22654470       5.18298127       2.03317792         0.00000000       0.00000000       0.00000000         0.24345200       0.01497800       0.13398300         13
Al         7.69390647       6.95407126       2.17466567         0.00000000       0.00000000       0.00000000        -0.01054500      -0.14424100       0.02344100         13
Al         0.49775331       1.94403823       1.49566078         0.00000000       0.00000000       0.00000000        -0.06736900       0.04369800       0.06631600         13
Al         8.11543290       2.34876363       4.24404522         0.00000000       0.00000000       0.00000000        -0.18995100       0.06276300      -0.00671700         13
Al         5.31863733       7.86980714       1.23305930         0.00000000       0.00000000       0.00000000         0.07416500      -0.11313400       0.02612600         13
Al         1.59470401       4.57160822       1.06595922         0.00000000       0.00000000       0.00000000        -0.17034900       0.07150400      -0.07950400         13
Al         6.28546672       5.46987894       0.16628365         0.00000000       0.00000000       0.00000000         0.01791700      -0.09752600      -0.04697600         13
Al         6.11841486       5.62047980       4.14945093         0.00000000       0.00000000       0.00000000        -0.16337100      -0.16637300       0.04123900         13
Al         3.72778908       4.79796222      -0.74868957         0.00000000       0.00000000       0.00000000         0.12449800      -0.05339300      -0.04653400         13
7
pbc=[T, T, T] config_type=high_entropy dft_energy=-22.29331378 Lattice="6.92029700 0.00000000 0.00000000 1.39856800 4.59998500 0.00000000 0.36753300 1.47041000 5.97426500" Properties=species:S:1:pos:R:3:velocities:R:3:dft_forces:R:3:Z:I:1
Al         4.67921175       4.88407756       4.58827097         0.00000000       0.00000000       0.00000000         0.03558500      -0.00032400       0.02890900         13
Al         8.64577020       4.20206336       5.81142678         0.00000000       0.00000000       0.00000000        -0.03975500       0.05365300       0.03506500         13
Al         3.05962861       4.74463930       1.33780710         0.00000000       0.00000000       0.00000000        -0.09015700      -0.09052400      -0.00380400         13
Al         5.76452567       3.47635197       1.81053047         0.00000000       0.00000000       0.00000000         0.07665800       0.09266200      -0.03064400         13
Al         1.82251179       2.60707654       3.17870420         0.00000000       0.00000000       0.00000000        -0.18473100       0.06806400      -0.04928200         13
Al         7.52381065       5.47501475       3.24631897         0.00000000       0.00000000       0.00000000         0.03150700      -0.04553100      -0.02438000         13
Al         6.03934445       2.45479790       5.95084936         0.00000000       0.00000000       0.00000000         0.17089300      -0.07799900       0.04413700         13
4
pbc=[T, T, T] config_type=high_entropy dft_energy=-10.70768574 Lattice="7.78226800 0.00000000 0.00000000 -3.62445600 7.70233300 0.00000000 0.69162400 0.58530300 2.35018200" Properties=species:S:1:pos:R:3:velocities:R:3:dft_forces:R:3:Z:I:1
Al         4.29068463       8.31564753       0.95492342         0.00000000       0.00000000       0.00000000         0.04174300      -0.37831700       0.07349500         13
Al         3.03708221       5.19969460       1.99733233         0.00000000       0.00000000       0.00000000        -0.05066500       0.35551800      -0.08121200         13
Al         7.96549385       8.29719986       0.74180212         0.00000000       0.00000000       0.00000000        -0.18385600      -0.42480400       0.15573100         13
Al         6.79189765       4.96782256       0.82176793         0.00000000       0.00000000       0.00000000         0.19277800       0.44760200      -0.14801400         13
4
pbc=[T, T, T] config_type=high_entropy dft_energy=-13.17669544 Lattice="5.00194500 0.00000000 0.00000000 1.08160600 4.54705500 0.00000000 1.83412100 0.95477400 4.40801300" Properties=species:S:1:pos:R:3:velocities:R:3:dft_forces:R:3:Z:I:1
Al         5.02923421       4.51274702       3.09796535         0.00000000       0.00000000       0.00000000        -0.10223600       0.24634600      -0.34907900         13
Al         2.66390141       4.09209837       1.69888510         0.00000000       0.00000000       0.00000000        -0.16116100       0.00799900       0.28452100         13
Al         7.24196528       4.55658127       4.61096642         0.00000000       0.00000000       0.00000000         0.15723100      -0.12547400       0.05993700         13
Al         2.93588516       1.58584033       0.55083837         0.00000000       0.00000000       0.00000000         0.10616700      -0.12887100       0.00462000         13
2
pbc=[T, T, T] config_type=high_entropy dft_energy=-5.15295122 Lattice="6.28486200 0.00000000 0.00000000 0.84914000 5.63947500 0.00000000 1.30869400 0.74113000 2.24790800" Properties=species:S:1:pos:R:3:velocities:R:3:dft_forces:R:3:Z:I:1
Al         1.76014912       4.80190136       2.20227017         0.00000000       0.00000000       0.00000000         0.34754400      -0.07386200      -0.20077500         13
Al         3.48608684       1.80451316       1.66202757         0.00000000       0.00000000       0.00000000        -0.34754400       0.07386200       0.20077500         13
3
pbc=[T, T, T] config_type=high_entropy dft_energy=-8.69723088 Lattice="12.64767800 0.00000000 0.00000000 1.64550400 3.34216000 0.00000000 0.14338000 1.04872500 2.61315400" Properties=species:S:1:pos:R:3:velocities:R:3:dft_forces:R:3:Z:I:1
Al         2.75421869      -0.80693600       0.78314707         0.00000000       0.00000000       0.00000000        -0.62278900       0.34527200      -0.10099500         13
Al        13.71531878       1.99789538       0.31376433         0.00000000       0.00000000       0.00000000        -0.00080200       0.01924700      -0.00157200         13
Al        12.01630122       4.87159566       0.80225212         0.00000000       0.00000000       0.00000000         0.62359200      -0.36451900       0.10256700         13
4
pbc=[T, T, T] config_type=high_entropy dft_energy=-1.14978712 Lattice="4.22982400 0.00000000 0.00000000 1.46178100 3.56881600 0.00000000 0.08397000 1.12630600 2.87640600" Properties=species:S:1:pos:R:3:velocities:R:3:dft_forces:R:3:Z:I:1
Al         2.51662404       3.75706769       1.60062443         0.00000000       0.00000000       0.00000000         0.80919400      -6.17668500       1.72599400         13
Al         4.63166608       3.75812522       1.60155358         0.00000000       0.00000000       0.00000000         0.77448900      -6.23395100       1.71358200         13
Al         2.17984114       1.70238524       2.65195918         0.00000000       0.00000000       0.00000000        -0.84235900       6.20826500      -1.68219400         13
Al         4.29374203       1.70189274       2.65502672         0.00000000       0.00000000       0.00000000        -0.74132400       6.20237100      -1.75738200         13
18
pbc=[T, T, T] config_type=high_entropy dft_energy=-64.44353508 Lattice="14.67620700 0.00000000 0.00000000 1.59457200 4.90814900 0.00000000 2.22579100 0.92434000 4.50812400" Properties=species:S:1:pos:R:3:velocities:R:3:dft_forces:R:3:Z:I:1
Al         1.97821453       2.60687619       2.59634792         0.00000000       0.00000000       0.00000000        -0.08903900       0.28757800       0.19500600         13
Al        13.67625969      -0.03303464       1.92314032         0.00000000       0.00000000       0.00000000        -0.35244900      -0.33676900       0.07674400         13
Al         1.08791231       1.19661543       0.43406919         0.00000000       0.00000000       0.00000000        -0.30459100       0.18594500       0.03964000         13
Al        12.11116961       4.69429654       1.85941391         0.00000000       0.00000000       0.00000000         0.45370400      -0.25963000      -0.31738500         13
Al         6.58516051       2.99524638       1.09171111         0.00000000       0.00000000       0.00000000         0.06620700       0.03338900      -0.12576500         13
Al         6.64244111       0.26600588       0.76118368         0.00000000       0.00000000       0.00000000        -0.11946500       0.05738400      -0.01150500         13
Al         9.01322882       0.44804781      -0.54921431         0.00000000       0.00000000       0.00000000         0.38763400      -0.20415000       0.23881500         13
Al         8.40916783       1.43882385       2.49415947         0.00000000       0.00000000       0.00000000         0.06473900       0.01545300       0.04915900         13
Al         5.00578385       4.28922781       4.58360729         0.00000000       0.00000000       0.00000000        -0.17272000      -0.03347500       0.08434100         13
Al         9.70118822       2.91766954       0.42213776         0.00000000       0.00000000       0.00000000         0.19118800      -0.04509400      -0.26808800         13
Al         4.52235531       1.84287365       2.46184875         0.00000000       0.00000000       0.00000000         0.18059000       0.06052000      -0.08629400         13
Al        14.00227657       2.46587422       3.17561332         0.00000000       0.00000000       0.00000000        -0.24989500       0.31051300       0.00170600         13
Al         5.82766748       5.97154586      -0.16048062         0.00000000       0.00000000       0.00000000        -0.04019600       0.08374800       0.05098300         13
Al         4.48339436       4.60031401       1.87037118         0.00000000       0.00000000       0.00000000         0.04107200      -0.09789300       0.01794000         13
Al        15.64585851       0.30298660       3.76081849         0.00000000       0.00000000       0.00000000        -0.16801200      -0.02318100       0.26459600         13
Al         9.94529842       3.61819334       3.08938230         0.00000000       0.00000000       0.00000000         0.00388700       0.01785600      -0.06402400         13
Al         7.38341347       4.45043373       3.28535212         0.00000000       0.00000000       0.00000000        -0.08900300      -0.12943500       0.06426800         13
Al        12.02931865       2.02604183       1.38389628         0.00000000       0.00000000       0.00000000         0.19635000       0.07723900      -0.21013600         13
2
pbc=[T, T, T] config_type=high_entropy dft_energy=-5.10320656 Lattice="9.53760900 0.00000000 0.00000000 1.66318300 2.91949200 0.00000000 1.49002000 0.05575700 2.91765500" Properties=species:S:1:pos:R:3:velocities:R:3:dft_forces:R:3:Z:I:1
Al        10.07000515       1.59926438       0.91480777         0.00000000       0.00000000       0.00000000        -0.38881800       0.20520000       0.19171300         13
Al         6.29942883       1.66849954       0.70676265         0.00000000       0.00000000       0.00000000         0.38881800      -0.20520000      -0.19171300         13
3
pbc=[T, T, T] config_type=high_entropy dft_energy=-6.92112141 Lattice="9.73196800 0.00000000 0.00000000 0.08090900 3.86316000 0.00000000 1.43787100 1.13754100 3.29503000" Properties=species:S:1:pos:R:3:velocities:R:3:dft_forces:R:3:Z:I:1
Al         9.88357150       3.76764638       1.85649601         0.00000000       0.00000000       0.00000000         0.01572900      -0.04316600       0.01304600         13
Al         7.54111378       2.15508088       4.15669156         0.00000000       0.00000000       0.00000000        -0.04088300       0.02686100       0.03586800         13
Al        12.17310091       5.71402052      -0.50219984         0.00000000       0.00000000       0.00000000         0.02515400       0.01630500      -0.04891500         13
3
pbc=[T, T, T] config_type=high_entropy dft_energy=-9.09120871 Lattice="4.45145700 0.00000000 0.00000000 2.10322600 4.06932000 0.00000000 0.59841700 0.27504400 4.81332200" Properties=species:S:1:pos:R:3:velocities:R:3:dft_forces:R:3:Z:I:1
Al         2.87581292       0.95987028       0.60867479         0.00000000       0.00000000       0.00000000         0.00430200      -0.00332300       0.00553300         13
Al         5.24600009       2.39890338       2.20584240         0.00000000       0.00000000       0.00000000         0.00174800      -0.00334000      -0.00347700         13
Al         3.17998651       3.83979172       3.81035633         0.00000000       0.00000000       0.00000000        -0.00605000       0.00666300      -0.00205600         13
2
pbc=[T, T, T] config_type=high_entropy dft_energy=-5.22285453 Lattice="5.55803400 0.00000000 0.00000000 0.68600700 4.63620000 0.00000000 0.69178400 0.62412900 2.00140400" Properties=species:S:1:pos:R:3:velocities:R:3:dft_forces:R:3:Z:I:1
Al         0.82335411       0.69160040       1.95657142         0.00000000       0.00000000       0.00000000         0.12545600      -0.07794500       0.26223100         13
Al         2.48957420       1.82343770       0.02865394         0.00000000       0.00000000       0.00000000        -0.12545600       0.07794500      -0.26223100         13
4
pbc=[T, T, T] config_type=high_entropy dft_energy=11.77676114 Lattice="8.12248700 0.00000000 0.00000000 1.20020000 2.26106200 0.00000000 0.20656200 0.32290800 1.72509600" Properties=species:S:1:pos:R:3:velocities:R:3:dft_forces:R:3:Z:I:1
Al         1.98504645       1.55410563       1.30190421         0.00000000       0.00000000       0.00000000        -0.11951500       0.04766300      -0.00237200         13
Al         5.94228239       1.40510839       0.44001517         0.00000000       0.00000000       0.00000000        -0.01509200      -0.02808500       0.01005200         13
Al         8.02182532       1.48314686       0.87771984         0.00000000       0.00000000       0.00000000         0.16139100      -0.02902700      -0.00823500         13
Al         4.06729781       1.63981817       1.73192800         0.00000000       0.00000000       0.00000000        -0.02678500       0.00944900       0.00055400         13
5
pbc=[T, T, T] config_type=high_entropy dft_energy=-11.49924210 Lattice="3.84662400 0.00000000 0.00000000 -1.89570400 5.49152900 0.00000000 1.31002000 0.43683900 3.21155400" Properties=species:S:1:pos:R:3:velocities:R:3:dft_forces:R:3:Z:I:1
Al         3.38016221       0.49850991      -0.12383992         0.00000000       0.00000000       0.00000000        -2.80796700       0.72914000      -2.19837600         13
Al         4.92830983       4.47373137       1.82071872         0.00000000       0.00000000       0.00000000         0.37076900       1.42037200      -1.00926200         13
Al         1.57617264       3.26408740      -0.39652134         0.00000000       0.00000000       0.00000000         1.72711200      -2.68267800       0.99329300         13
Al         4.07789127       2.32469351       1.17269842         0.00000000       0.00000000       0.00000000        -1.14797300      -1.44050000       0.77148800         13
Al         3.07393890       4.67304214       0.65248825         0.00000000       0.00000000       0.00000000         1.85805900       1.97366700       1.44285600         13
2
pbc=[T, T, T] config_type=high_entropy dft_energy=-5.20082235 Lattice="8.67946900 0.00000000 0.00000000 0.97072000 2.04494500 0.00000000 0.78735900 -0.30350000 2.45961000" Properties=species:S:1:pos:R:3:velocities:R:3:dft_forces:R:3:Z:I:1
Al         2.42275244       1.19647720       0.05005260         0.00000000       0.00000000       0.00000000        -0.04744400       0.02296500       0.01543500         13
Al         7.04806815       1.58347269       0.06197692         0.00000000       0.00000000       0.00000000         0.04744400      -0.02296500      -0.01543500         13
4
pbc=[T, T, T] config_type=high_entropy dft_energy=-0.32968085 Lattice="5.39619400 0.00000000 0.00000000 0.93968500 4.75943200 0.00000000 0.75858500 0.51373500 1.75253700" Properties=species:S:1:pos:R:3:velocities:R:3:dft_forces:R:3:Z:I:1
Al         5.55521503      -0.09727369       2.33112802         0.00000000       0.00000000       0.00000000        -0.00162900       0.00218800       0.00040500         13
Al         5.64578250       2.02564506       1.45497647         0.00000000       0.00000000       0.00000000        -0.00092300      -0.00072800       0.00049300         13
Al         1.45674796       2.63625745      -0.44408396         0.00000000       0.00000000       0.00000000         7.16497600      -2.16525700      -2.89038800         13
Al         2.92134989       0.38749512      -0.15113173         0.00000000       0.00000000       0.00000000        -7.16242500       2.16379700       2.88949000         13
2
pbc=[T, T, T] config_type=high_entropy dft_energy=-4.02025909 Lattice="5.71001200 0.00000000 0.00000000 0.69809900 5.40596200 0.00000000 0.80673500 0.55473700 1.87452500" Properties=species:S:1:pos:R:3:velocities:R:3:dft_forces:R:3:Z:I:1
Al         6.89976636       4.31072627       0.78801807         0.00000000       0.00000000       0.00000000        -0.33105400      -0.01523900       0.21155300         13
Al         4.58230756       2.01172718       1.71535593         0.00000000       0.00000000       0.00000000         0.33105400       0.01523900      -0.21155300         13
9
pbc=[T, T, T] config_type=high_entropy dft_energy=-29.84916407 Lattice="9.41933000 0.00000000 0.00000000 1.62457200 9.27472500 0.00000000 0.79232600 0.03268200 2.46259200" Properties=species:S:1:pos:R:3:velocities:R:3:dft_forces:R:3:Z:I:1
Al         3.95815405       6.32505854       1.18105580         0.00000000       0.00000000       0.00000000         0.00618200      -0.04213800      -0.05790800         13
Al        10.40581084       5.74532387       0.75298080         0.00000000       0.00000000       0.00000000        -0.12794500      -0.12625200       0.07123700         13
Al         6.90086496       5.89381398       0.17077805         0.00000000       0.00000000       0.00000000         0.10818300       0.00789600      -0.02213900         13
Al         5.52418579       3.88734160       1.95911025         0.00000000       0.00000000       0.00000000        -0.06680900      -0.12356200      -0.01076000         13
Al         3.21318748       1.73103941       1.00115394         0.00000000       0.00000000       0.00000000         0.13314100      -0.18677800       0.02057100         13
Al         7.42759258       1.04857547       2.71499974         0.00000000       0.00000000       0.00000000        -0.01268500       0.18093900      -0.03305800         13
Al         8.39179435       3.40294872       1.07275669         0.00000000       0.00000000       0.00000000         0.00144400       0.06108100       0.00330900         13
Al         9.78934320       0.77025170       0.54195912         0.00000000       0.00000000       0.00000000        -0.06951300       0.17782700       0.03076900         13
Al         5.31794962       8.35915482      -0.61286186         0.00000000       0.00000000       0.00000000         0.02800400       0.05098900      -0.00202000         13
4
pbc=[T, T, T] config_type=high_entropy dft_energy=-13.05726782 Lattice="5.56900700 0.00000000 0.00000000 0.11179600 6.68876500 0.00000000 0.49737300 0.01292300 2.58442800" Properties=species:S:1:pos:R:3:velocities:R:3:dft_forces:R:3:Z:I:1
Al        -0.24183097       0.79339287       1.16569012         0.00000000       0.00000000       0.00000000        -0.00674800      -0.01424900      -0.02316000         13
Al         2.47926788       5.80814048       0.07121295         0.00000000       0.00000000       0.00000000         0.03288900      -0.04321700       0.00013800         13
Al         2.57690730       2.62724628       1.46247028         0.00000000       0.00000000       0.00000000        -0.03085100       0.05795800       0.02508400         13
Al        -0.22546309       4.23504606       0.93193280         0.00000000       0.00000000       0.00000000         0.00470900      -0.00049200      -0.00206200         13
2
pbc=[T, T, T] config_type=high_entropy dft_energy=-2.11100002 Lattice="8.22657600 0.00000000 0.00000000 0.54151100 1.88987600 0.00000000 0.89369500 -0.22474400 2.28670900" Properties=species:S:1:pos:R:3:velocities:R:3:dft_forces:R:3:Z:I:1
Al         6.19407469       1.53244251       2.20630871         0.00000000       0.00000000       0.00000000        -0.04208400      -0.00043100       0.01541900         13
Al         9.97569018      -0.33671226      -0.26677296         0.00000000       0.00000000       0.00000000         0.04208400       0.00043100      -0.01541900         13
3
pbc=[T, T, T] config_type=high_entropy dft_energy=9.25145771 Lattice="5.92484000 0.00000000 0.00000000 1.17818800 2.25161100 0.00000000 0.94791100 -0.48252700 1.76077900" Properties=species:S:1:pos:R:3:velocities:R:3:dft_forces:R:3:Z:I:1
Al         4.95858842       0.43240297       0.58232422         0.00000000       0.00000000       0.00000000         2.07258600       0.98941700       0.50082500         13
Al         3.12707357       1.15013241       0.49662574         0.00000000       0.00000000       0.00000000        -2.34934500      -0.83933500      -0.82831000         13
Al         7.49245774       0.54322900       1.43929481         0.00000000       0.00000000       0.00000000         0.27675900      -0.15008300       0.32748500         13
20
pbc=[T, T, T] config_type=high_entropy dft_energy=-55.02916131 Lattice="13.89007500 0.00000000 0.00000000 4.86530200 11.84069600 0.00000000 0.87606100 0.63662100 4.14328400" Properties=species:S:1:pos:R:3:velocities:R:3:dft_forces:R:3:Z:I:1
Al        10.69863148       9.07643863       4.18969760         0.00000000       0.00000000       0.00000000         0.04226000      -0.18854100       0.06397600         13
Al        16.31793756       6.34910548       1.32798203         0.00000000       0.00000000       0.00000000         0.01498500       0.07761600       0.02358900         13
Al        14.49422470       3.61646672       2.32005164         0.00000000       0.00000000       0.00000000        -0.06940300       0.01988000       0.04531400         13
Al        12.41393974       3.77171530       5.04388921         0.00000000       0.00000000       0.00000000         0.06142900       0.02427200      -0.06158900         13
Al         7.17953297       9.65838591       1.83734997         0.00000000       0.00000000       0.00000000        -0.12023200       0.10459500      -0.14039400         13
Al         4.41730739       6.46134635      -1.47975980         0.00000000       0.00000000       0.00000000        -0.03848600       0.01678900      -0.02007900         13
Al        12.85203236       8.90895377       1.53448514         0.00000000       0.00000000       0.00000000         0.05380600      -0.28925500       0.06777500         13
Al         5.48743704       4.23229120       0.66713797         0.00000000       0.00000000       0.00000000         0.03687900      -0.00546000       0.01667500         13
Al         8.25230794       5.80855246       1.52556550         0.00000000       0.00000000       0.00000000         0.03455400      -0.11972700       0.00482100         13
Al         9.38802053       3.50544887       3.85900171         0.00000000       0.00000000       0.00000000        -0.02355400       0.11118600       0.03248100         13
Al        14.48033267       0.64040675       0.64468645         0.00000000       0.00000000       0.00000000        -0.06861300       0.04413700      -0.09453600         13
Al         6.73188253       2.02803385       2.79664689         0.00000000       0.00000000       0.00000000        -0.00683900       0.31410300      -0.13270300         13
Al         4.22488793       0.08377030       3.21138978         0.00000000       0.00000000       0.00000000        -0.19501400      -0.08516700       0.28252100         13
Al        13.38145772       5.89925153      -0.04774498         0.00000000       0.00000000       0.00000000        -0.01496200      -0.01100600       0.03958000         13
Al         3.69867265       3.47848572       3.47919349         0.00000000       0.00000000       0.00000000         0.04709400      -0.05084000      -0.09667400         13
Al        11.31615906       6.06350101       2.69967041         0.00000000       0.00000000       0.00000000         0.04535000      -0.02852000       0.01642000         13
Al         9.32086164       0.17575687       1.76540567         0.00000000       0.00000000       0.00000000         0.21895800       0.14713300      -0.05832900         13
Al         4.14082677       9.33904180       0.34539453         0.00000000       0.00000000       0.00000000        -0.03850300      -0.05442700      -0.00507500         13
Al        17.18110371      12.65953457       3.27137038         0.00000000       0.00000000       0.00000000         0.03467900       0.08365500      -0.01394200         13
Al        15.91958854       9.34078422       3.04438074         0.00000000       0.00000000       0.00000000        -0.01438900      -0.11042300       0.03017100         13
3
pbc=[T, T, T] config_type=high_entropy dft_energy=-8.93050916 Lattice="6.63025500 0.00000000 0.00000000 2.66246000 5.84889600 0.00000000 0.95983100 -0.34948400 2.35002800" Properties=species:S:1:pos:R:3:velocities:R:3:dft_forces:R:3:Z:I:1
Al         4.75437596       1.63675733       1.48467143         0.00000000       0.00000000       0.00000000         0.22571600      -0.12477900      -0.13301500         13
Al         7.10497684       4.36363965       2.10651505         0.00000000       0.00000000       0.00000000        -0.05422300       0.21645800       0.06410700         13
Al         9.28578258       5.44116544      -0.12328276         0.00000000       0.00000000       0.00000000        -0.17149300      -0.09167900       0.06890800         13
3
pbc=[T, T, T] config_type=high_entropy dft_energy=-7.85486128 Lattice="6.61002400 0.00000000 0.00000000 0.57467700 6.70941300 0.00000000 0.03398800 0.93191800 2.03120800" Properties=species:S:1:pos:R:3:velocities:R:3:dft_forces:R:3:Z:I:1
Al         4.68350332       2.10912259       0.43278428         0.00000000       0.00000000       0.00000000         0.31608200       0.19163200      -0.11070800         13
Al         5.23981674       5.95567784       1.59987718         0.00000000       0.00000000       0.00000000         0.33490300      -0.31352500       0.13240300         13
Al         0.98433152       3.58797524       1.12900319         0.00000000       0.00000000       0.00000000        -0.65098500       0.12189300      -0.02169500         13
7
pbc=[T, T, T] config_type=high_entropy dft_energy=-23.55074471 Lattice="11.31993000 0.00000000 0.00000000 0.42407600 4.34022600 0.00000000 1.67815700 1.67222100 3.43119100" Properties=species:S:1:pos:R:3:velocities:R:3:dft_forces:R:3:Z:I:1
Al         6.59610587       3.14833157       0.23519362         0.00000000       0.00000000       0.00000000         0.09908000      -0.15080300      -0.03244900         13
Al        11.35100518       4.54321585       2.74660036         0.00000000       0.00000000       0.00000000         0.16569700      -0.22443000       0.12649700         13
Al         9.25571686       2.51428290       2.42723363         0.00000000       0.00000000       0.00000000         0.24482000       0.14455900      -0.32767200         13
Al        12.26052266       2.14150275       1.07483539         0.00000000       0.00000000       0.00000000        -0.44453300      -0.05973700       0.23341600         13
Al         2.95492399       3.93385724       1.73669774         0.00000000       0.00000000       0.00000000        -0.12450600       0.16489000      -0.09975800         13
Al         5.16152818       3.25226980       3.41250355         0.00000000       0.00000000       0.00000000        -0.04664900       0.21746800       0.06331400         13
Al         5.97913076       5.38996261       1.78628309         0.00000000       0.00000000       0.00000000         0.10609100      -0.09194700       0.03665200         13
6
pbc=[T, T, T] config_type=high_entropy dft_energy=-15.24266294 Lattice="12.91386900 0.00000000 0.00000000 1.35811200 3.74814900 0.00000000 0.25585000 0.66670100 4.55035200" Properties=species:S:1:pos:R:3:velocities:R:3:dft_forces:R:3:Z:I:1
Al         5.55236421       3.24101574       4.39425071         0.00000000       0.00000000       0.00000000        -0.02321200      -0.00133800      -0.01746400         13
Al         2.86375724       1.69507405       2.16070158         0.00000000       0.00000000       0.00000000        -0.00452300      -0.01439100      -0.01498400         13
Al         8.04888501       4.24069101       2.17576006         0.00000000       0.00000000       0.00000000        -0.02771500       0.00039700      -0.01004900         13
Al         0.47998367       0.97273581       4.56382566         0.00000000       0.00000000       0.00000000         0.02273700      -0.01160000      -0.00706700         13
Al        10.72484806      -0.42216995       2.42799804         0.00000000       0.00000000       0.00000000         0.03577100       0.03239700       0.06133500         13
Al         9.25565823       1.57744309       0.01227252         0.00000000       0.00000000       0.00000000        -0.00305800      -0.00546500      -0.01177100         13
2
pbc=[T, T, T] config_type=high_entropy dft_energy=-4.29824687 Lattice="6.61679600 0.00000000 0.00000000 1.27336200 5.81697700 0.00000000 0.99918300 0.03386900 1.95211600" Properties=species:S:1:pos:R:3:velocities:R:3:dft_forces:R:3:Z:I:1
Al         4.89111140       3.90586798      -0.39831374         0.00000000       0.00000000       0.00000000        -0.28982600       0.00537000       0.10441200         13
Al         2.65390618       1.32845747       0.73252057         0.00000000       0.00000000       0.00000000         0.28982600      -0.00537000      -0.10441200         13
12
pbc=[T, T, T] config_type=high_entropy dft_energy=-36.21651750 Lattice="8.05367400 0.00000000 0.00000000 2.35063000 7.76774600 0.00000000 1.42250400 0.12931900 3.40674000" Properties=species:S:1:pos:R:3:velocities:R:3:dft_forces:R:3:Z:I:1
Al         5.29349329       4.60548376       1.45892061         0.00000000       0.00000000       0.00000000         0.27707600      -0.97915800      -1.05550100         13
Al         7.21152264       6.13492701       2.06942486         0.00000000       0.00000000       0.00000000        -0.31847500      -0.30118300       0.51105700         13
Al         2.19192798       2.44806375       1.88841739         0.00000000       0.00000000       0.00000000         1.37231000       0.21688300      -0.63303800         13
Al         4.68997840       1.83769459       0.61007690         0.00000000       0.00000000       0.00000000        -1.38390900       1.74355800      -0.79129600         13
Al         8.26304101       1.04032069       2.22970054         0.00000000       0.00000000       0.00000000         0.82114200      -0.32742700      -1.34544600         13
Al         3.30022768       5.13943006       0.26683507         0.00000000       0.00000000       0.00000000        -1.32976100      -0.31433900      -0.57718700         13
Al         8.64292576       4.15104868       0.35780311         0.00000000       0.00000000       0.00000000         1.38697500       1.72527500      -1.07128100         13
Al         7.45333320       3.83006784       2.47860231         0.00000000       0.00000000       0.00000000         0.16860800       0.10509100       1.36806500         13
Al        10.49651009       6.45137219       2.04926305         0.00000000       0.00000000       0.00000000         0.42761300      -1.99864400       1.61213600         13
Al         7.00760003       2.33589648       0.71401031         0.00000000       0.00000000       0.00000000         0.70377300      -0.20861900       0.48702100         13
Al         6.37522252      -0.19516617       0.86158462         0.00000000       0.00000000       0.00000000        -0.41994100       0.18341400       0.04536300         13
Al         6.97771445       8.41429725       2.66876901         0.00000000       0.00000000       0.00000000        -1.70541000       0.15514900       1.45010900         13
2
pbc=[T, T, T] config_type=high_entropy dft_energy=-6.00366182 Lattice="4.11637200 0.00000000 0.00000000 0.72148700 3.64382500 0.00000000 0.77749600 -0.12844900 3.89818900" Properties=species:S:1:pos:R:3:velocities:R:3:dft_forces:R:3:Z:I:1
Al         3.86531326       3.09232363       2.53751569         0.00000000       0.00000000       0.00000000         0.01825900      -0.04424600      -0.03806500         13
Al         1.31466223       1.75388250       0.41803942         0.00000000       0.00000000       0.00000000        -0.01825900       0.04424600       0.03806500         13
2
pbc=[T, T, T] config_type=high_entropy dft_energy=-5.51313588 Lattice="11.24201300 0.00000000 0.00000000 1.04772700 2.28158600 0.00000000 0.65702900 -0.81072800 2.81714600" Properties=species:S:1:pos:R:3:velocities:R:3:dft_forces:R:3:Z:I:1
Al         5.52301914       2.97479351       4.00254092         0.00000000       0.00000000       0.00000000        -0.02623900       0.01182600       0.00986100         13
Al         7.67989829      -0.36023149      -1.69161482         0.00000000       0.00000000       0.00000000         0.02623900      -0.01182600      -0.00986100         13
2
pbc=[T, T, T] config_type=high_entropy dft_energy=8.83775359 Lattice="5.40340600 0.00000000 0.00000000 1.70045500 5.30878000 0.00000000 0.11574800 0.53163800 1.54235800" Properties=species:S:1:pos:R:3:velocities:R:3:dft_forces:R:3:Z:I:1
Al         3.39594818       1.44473427       0.50275758         0.00000000       0.00000000       0.00000000         0.22355600      -0.22164300       0.05966100         13
Al         7.19567804       4.59868513       0.28109695         0.00000000       0.00000000       0.00000000        -0.22355600       0.22164300      -0.05966100         13
2
pbc=[T, T, T] config_type=high_entropy dft_energy=-6.81242020 Lattice="6.56621600 0.00000000 0.00000000 0.56235600 2.78088400 0.00000000 1.21776900 0.28637100 2.37125700" Properties=species:S:1:pos:R:3:velocities:R:3:dft_forces:R:3:Z:I:1
Al         4.63046133       0.46618722       0.41238634         0.00000000       0.00000000       0.00000000         0.10557600      -0.00332300       0.02029800         13
Al         3.17279759       2.13153089       2.49606746         0.00000000       0.00000000       0.00000000        -0.10557600       0.00332300      -0.02029800         13
3
pbc=[T, T, T] config_type=high_entropy dft_energy=-9.26393486 Lattice="6.21610300 0.00000000 0.00000000 0.35958400 5.71876000 0.00000000 0.49209200 0.43547300 2.51614900" Properties=species:S:1:pos:R:3:velocities:R:3:dft_forces:R:3:Z:I:1
Al         0.41892138       5.22866984       1.34899192         0.00000000       0.00000000       0.00000000         0.24651000      -0.10985100      -0.03563100         13
Al         1.61806512       2.30306573       0.51722744         0.00000000       0.00000000       0.00000000        -0.00363000      -0.01394200      -0.01162100         13
Al         3.56090010       5.54986900       1.98887258         0.00000000       0.00000000       0.00000000        -0.24288000       0.12379400       0.04725200         13
14
pbc=[T, T, T] config_type=high_entropy dft_energy=-46.03665919 Lattice="7.75526200 0.00000000 0.00000000 -3.87071500 6.93339400 0.00000000 0.70346500 1.67530200 6.56186100" Properties=species:S:1:pos:R:3:velocities:R:3:dft_forces:R:3:Z:I:1
Al         1.59085319       3.89600053       5.70239467         0.00000000       0.00000000       0.00000000         0.22796800       0.16469000      -0.09798200         13
Al         7.22562500       7.69692403      -0.05570314         0.00000000       0.00000000       0.00000000         0.01138700       0.17813100       0.04102500         13
Al         1.65963120       2.17658836       8.11760336         0.00000000       0.00000000       0.00000000         0.12284000       0.07420900       0.20912100         13
Al        11.58069024       5.22458944       3.25202497         0.00000000       0.00000000       0.00000000        -0.09183500       0.01414900      -0.07202900         13
Al         9.69933433       7.25901003       1.58852178         0.00000000       0.00000000       0.00000000        -0.05849400       0.04705300       0.11349600         13
Al         3.09834157       3.55065641       1.02124442         0.00000000       0.00000000       0.00000000        -0.03975200      -0.10448700      -0.26061100         13
Al         7.35989170       3.13861086       1.64180329         0.00000000       0.00000000       0.00000000        -0.10933100      -0.01443600      -0.04639600         13
Al         6.44480007       8.56977589       4.05030547         0.00000000       0.00000000       0.00000000        -0.10089300      -0.05985100      -0.07351800         13
Al         6.46190224       3.90741500       5.84942371         0.00000000       0.00000000       0.00000000        -0.16789000       0.10995200      -0.04574200         13
Al        11.08998263       6.59531240      -0.87268906         0.00000000       0.00000000       0.00000000        -0.03561300      -0.11227700      -0.01872900         13
Al         7.75919090       5.87407015       4.03568998         0.00000000       0.00000000       0.00000000         0.11622900       0.04034300       0.07577700         13
Al         9.33884344       6.80587822       6.35273028         0.00000000       0.00000000       0.00000000         0.14030200      -0.09485500       0.06510200         13
Al         5.47242304       1.79033483       4.04180789         0.00000000       0.00000000       0.00000000         0.07267800      -0.09137500       0.02992800         13
Al         5.71728326       5.12719226      -0.04550120         0.00000000       0.00000000       0.00000000        -0.08759800      -0.15124400       0.08055900         13
2
pbc=[T, T, T] config_type=high_entropy dft_energy=-6.08009041 Lattice="7.91916000 0.00000000 0.00000000 0.29205100 2.97985300 0.00000000 1.24585500 -0.04242500 2.44429000" Properties=species:S:1:pos:R:3:velocities:R:3:dft_forces:R:3:Z:I:1
Al         7.91280777       1.84634185       2.39310246         0.00000000       0.00000000       0.00000000         0.26805100      -0.03821200      -0.13546300         13
Al         3.39716141       1.30601364       2.19403796         0.00000000       0.00000000       0.00000000        -0.26805100       0.03821200       0.13546300         13
4
pbc=[T, T, T] config_type=high_entropy dft_energy=-7.62488995 Lattice="9.51991900 0.00000000 0.00000000 0.08751700 2.97119600 0.00000000 1.02271300 0.33714900 1.74495400" Properties=species:S:1:pos:R:3:velocities:R:3:dft_forces:R:3:Z:I:1
Al         1.70447378       2.45281461       0.57170613         0.00000000       0.00000000       0.00000000         0.43028100       0.16133600       0.42111000         13
Al         4.11671466       1.26033803       0.80937222         0.00000000       0.00000000       0.00000000         0.46477600      -0.31303100      -0.45078600         13
Al         6.63184182       2.18362605       0.56864149         0.00000000       0.00000000       0.00000000        -0.41225000       0.36027000       0.41809500         13
Al         9.09534597       1.02043001       0.84570041         0.00000000       0.00000000       0.00000000        -0.48280800      -0.20857400      -0.38841900         13
6
pbc=[T, T, T] config_type=high_entropy dft_energy=-13.50761451 Lattice="6.78429000 0.00000000 0.00000000 2.25594800 4.62507300 0.00000000 1.23461900 -0.33221300 2.11789400" Properties=species:S:1:pos:R:3:velocities:R:3:dft_forces:R:3:Z:I:1
Al         1.74900361       1.15463302      -0.20038873         0.00000000       0.00000000       0.00000000         0.00304600       3.56734600       0.23442500         13
Al         4.00825322       1.16127324      -0.19794448         0.00000000       0.00000000       0.00000000         0.13092000       3.51399600       0.19552800         13
Al         8.65687636       3.40261323       1.96642041         0.00000000       0.00000000       0.00000000        -0.13629200      -3.55387200      -0.16951700         13
Al         7.50360065       0.82640185       1.92328108         0.00000000       0.00000000       0.00000000         0.23054200       3.52170800       0.13098700         13
Al         6.39279040       3.40211168       1.96885072         0.00000000       0.00000000       0.00000000         0.03501300      -3.55639000      -0.23221900         13
Al         4.13734087       3.39474362       1.96653925         0.00000000       0.00000000       0.00000000        -0.26322800      -3.49278700      -0.15920400         13
8
pbc=[T, T, T] config_type=high_entropy dft_energy=-24.16140369 Lattice="9.80309100 0.00000000 0.00000000 0.91167500 9.31870300 0.00000000 1.03742600 0.07361800 2.61164300" Properties=species:S:1:pos:R:3:velocities:R:3:dft_forces:R:3:Z:I:1
Al        10.95756026      10.61254103       2.57497242         0.00000000       0.00000000       0.00000000        -0.06997300      -0.28194500       0.06035500         13
Al         0.68175043       7.17063459       0.35279634         0.00000000       0.00000000       0.00000000        -0.05409000       0.11768600       0.03520800         13
Al         4.79184199       8.20920236       2.00082523         0.00000000       0.00000000       0.00000000         0.04609400      -0.02745000      -0.02833600         13
Al         7.21048065      -0.51527361       2.20670233         0.00000000       0.00000000       0.00000000         0.04355900       0.00414300      -0.04644000         13
Al         8.26244230       5.43903912       2.21668498         0.00000000       0.00000000       0.00000000        -0.14052300       0.14136400       0.05834600         13
Al         3.65584648       5.13387041       1.08226191         0.00000000       0.00000000       0.00000000         0.05838600       0.05964300      -0.02095600         13
Al        12.23890923       2.08563700       0.23533469         0.00000000       0.00000000       0.00000000         0.08197400      -0.04521600      -0.02892500         13
Al         6.42064261       2.70303270       1.49350844         0.00000000       0.00000000       0.00000000         0.03457200       0.03177600      -0.02925200         13
2
pbc=[T, T, T] config_type=high_entropy dft_energy=-6.71215231 Lattice="7.92207600 0.00000000 0.00000000 0.49648200 2.67794600 0.00000000 1.32532800 0.94131300 2.24556000" Properties=species:S:1:pos:R:3:velocities:R:3:dft_forces:R:3:Z:I:1
Al         5.15734664       2.05715298       0.67067911         0.00000000       0.00000000       0.00000000         0.27586000      -0.04300300      -0.13855500         13
Al         8.04452716       0.61331674       0.24905600         0.00000000       0.00000000       0.00000000        -0.27586000       0.04300300       0.13855500         13
6
pbc=[T, T, T] config_type=high_entropy dft_energy=-19.87502070 Lattice="7.75137400 0.00000000 0.00000000 2.85729000 6.70993000 0.00000000 0.37951700 -0.15490700 2.92909100" Properties=species:S:1:pos:R:3:velocities:R:3:dft_forces:R:3:Z:I:1
Al         0.20149829      -1.16962586       1.46748346         0.00000000       0.00000000       0.00000000         0.29243200       0.11669200      -0.02901500         13
Al         6.23087986       5.02684107       1.17442295         0.00000000       0.00000000       0.00000000        -0.07385900       0.09729600       0.02058900         13
Al         2.34157459       1.17777712       1.73992009         0.00000000       0.00000000       0.00000000        -0.04658200      -0.10959600      -0.02103200         13
Al         5.47288031       0.13989419       2.49601551         0.00000000       0.00000000       0.00000000         0.00061400       0.03649700       0.00092300         13
Al         7.29972263       2.19313046       0.79202867         0.00000000       0.00000000       0.00000000        -0.14521000      -0.18335500       0.00172800         13
Al         4.15675083       3.12750004      -0.08990722         0.00000000       0.00000000       0.00000000        -0.02739500       0.04246600       0.02680700         13
12
pbc=[T, T, T] config_type=high_entropy dft_energy=-41.27916806 Lattice="9.85088300 0.00000000 0.00000000 3.52250800 7.59563200 0.00000000 2.00337800 1.25877600 3.62854900" Properties=species:S:1:pos:R:3:velocities:R:3:dft_forces:R:3:Z:I:1
Al         9.49095689       1.12456547       2.68238853         0.00000000       0.00000000       0.00000000        -0.04999300      -0.01724100      -0.02071400         13
Al         9.14758860       5.29379045       0.97624838         0.00000000       0.00000000       0.00000000         0.05408600       0.03887500      -0.01535000         13
Al         7.23433573       3.21690207       2.84418466         0.00000000       0.00000000       0.00000000         0.01183800       0.03683400       0.00302000         13
Al         4.32658403       2.98944784       1.96157146         0.00000000       0.00000000       0.00000000        -0.00120200      -0.05155300      -0.02673200         13
Al         5.43566519       5.65001293       2.91128375         0.00000000       0.00000000       0.00000000         0.02186100       0.10500400      -0.00386600         13
Al         6.90677038       7.92639672       0.94638932         0.00000000       0.00000000       0.00000000         0.01910300      -0.06260800       0.00598900         13
Al        10.37607022      -0.25465373       0.14699765         0.00000000       0.00000000       0.00000000         0.04401200      -0.01188400       0.00469000         13
Al        12.32708934       5.53186982       2.01260400         0.00000000       0.00000000       0.00000000        -0.01975600       0.01507300       0.00903600         13
Al         6.66023906       0.38491133       1.91773887         0.00000000       0.00000000       0.00000000        -0.00932000       0.04807000      -0.00839700         13
Al         8.06273980       2.67275928      -0.03225515         0.00000000       0.00000000       0.00000000         0.05295800      -0.02853300       0.00289700         13
Al        11.27575198       2.88919519       0.96472205         0.00000000       0.00000000       0.00000000        -0.10144000      -0.01721300       0.06397500         13
Al         8.26563582       6.40723772       3.64282150         0.00000000       0.00000000       0.00000000        -0.02214600      -0.05482500      -0.01455000         13
2
pbc=[T, T, T] config_type=high_entropy dft_energy=-6.40022133 Lattice="6.57836200 0.00000000 0.00000000 0.39523600 2.39129400 0.00000000 0.85267900 -0.02856600 2.64442700" Properties=species:S:1:pos:R:3:velocities:R:3:dft_forces:R:3:Z:I:1
Al         1.57794268       1.89161209       0.70958771         0.00000000       0.00000000       0.00000000         0.16095500       0.02716100      -0.09003800         13
Al         4.24639986       0.53291117       1.14405278         0.00000000       0.00000000       0.00000000        -0.16095500      -0.02716100       0.09003800         13
2
pbc=[T, T, T] config_type=high_entropy dft_energy=-4.93131295 Lattice="6.25753600 0.00000000 0.00000000 2.68456700 6.94946600 0.00000000 0.38814300 1.06587400 2.00927000" Properties=species:S:1:pos:R:3:velocities:R:3:dft_forces:R:3:Z:I:1
Al         3.97196078       3.67113864       1.78337608         0.00000000       0.00000000       0.00000000        -0.20101900      -0.10783800       0.14003700         13
Al         7.09052017       2.58294305       1.94186352         0.00000000       0.00000000       0.00000000         0.20101900       0.10783800      -0.14003700         13
3
pbc=[T, T, T] config_type=high_entropy dft_energy=1.02849519 Lattice="7.90139100 0.00000000 0.00000000 1.21521200 3.01371900 0.00000000 0.45278700 -0.01321100 1.89598700" Properties=species:S:1:pos:R:3:velocities:R:3:dft_forces:R:3:Z:I:1
Al         4.54241133       0.56657361       1.23770207         0.00000000       0.00000000       0.00000000         0.12573000       0.07737100      -0.02820200         13
Al         2.70154415       1.36292254       0.66469259         0.00000000       0.00000000       0.00000000        -8.37362900       4.15161100       2.14427700         13
Al         7.59058008       2.76076870       1.81273785         0.00000000       0.00000000       0.00000000         8.24789900      -4.22898200      -2.11607500         13
11
pbc=[T, T, T] config_type=high_entropy dft_energy=-24.02935156 Lattice="12.37808300 0.00000000 0.00000000 5.40400100 10.09579400 0.00000000 0.87689600 0.24576800 4.07564600" Properties=species:S:1:pos:R:3:velocities:R:3:dft_forces:R:3:Z:I:1
Al        18.03723224       6.78346140       0.95885422         0.00000000       0.00000000       0.00000000        -0.12592300       0.02171200      -0.03179000         13
Al         5.90270058       0.81429680       1.54125359         0.00000000       0.00000000       0.00000000         0.05632300       0.03719600      -0.08195400         13
Al        15.08320396       5.84250966       3.64030446         0.00000000       0.00000000       0.00000000        -0.22817200      -0.12689200       0.03244500         13
Al         5.64868476       3.82500832       3.53544609         0.00000000       0.00000000       0.00000000        -0.12978100      -0.08427600       0.07815200         13
Al         9.03061801       2.73422577       2.98091728         0.00000000       0.00000000       0.00000000         0.01277700      -0.30707900       0.01872800         13
Al        12.25836151       3.67326838       4.36604779         0.00000000       0.00000000       0.00000000         0.14580400       0.00052200      -0.08943900         13
Al        11.78767307       6.57229604       2.14779553         0.00000000       0.00000000       0.00000000         0.27909100       0.04171800      -0.02188200         13
Al        12.25564574       0.05014999       3.52390890         0.00000000       0.00000000       0.00000000        -0.08272900       0.10376600      -0.00857000         13
Al         8.92729844       8.34456831       0.60254000         0.00000000       0.00000000       0.00000000         0.32111900       0.01234100      -0.01166800         13
Al        14.10070816       9.23068490       3.14643250         0.00000000       0.00000000       0.00000000        -0.17629000       0.02166100       0.08253300         13
Al        14.63410806       2.40428591       1.89010567         0.00000000       0.00000000       0.00000000        -0.07221900       0.27933100       0.03344500         13
2
pbc=[T, T, T] config_type=high_entropy dft_energy=-5.11623132 Lattice="8.28824700 0.00000000 0.00000000 0.73468200 2.35182100 0.00000000 0.11091700 -0.00179300 2.25326900" Properties=species:S:1:pos:R:3:velocities:R:3:dft_forces:R:3:Z:I:1
Al         0.66904375       0.98196401       0.26369435         0.00000000       0.00000000       0.00000000         0.40153900      -0.12768800      -0.01653100         13
Al         3.62407418       0.93796015       1.33276352         0.00000000       0.00000000       0.00000000        -0.40153900       0.12768800       0.01653100         13
24
pbc=[T, T, T] config_type=high_entropy dft_energy=-79.35087280 Lattice="9.36024900 0.00000000 0.00000000 0.94787300 7.80965000 0.00000000 1.98580800 -0.08003300 8.06693700" Properties=species:S:1:pos:R:3:velocities:R:3:dft_forces:R:3:Z:I:1
Al         6.02999952       3.62041544       6.17062631         0.00000000       0.00000000       0.00000000        -0.01677300       0.03659900       0.02727300         13
Al         3.73038327       3.32095438       3.98335500         0.00000000       0.00000000       0.00000000        -0.06060800      -0.01166900      -0.01273000         13
Al         7.03332922       6.16151449       4.21927863         0.00000000       0.00000000       0.00000000        -0.03884600       0.05964300      -0.04456000         13
Al        10.64032152       2.43108138       2.21610667         0.00000000       0.00000000       0.00000000        -0.01427200      -0.02001900       0.03679300         13
Al         5.31884995       8.78515841       5.93850954         0.00000000       0.00000000       0.00000000         0.03547700       0.01879700      -0.03265700         13
Al         4.09744183       5.98295395       5.60972615         0.00000000       0.00000000       0.00000000         0.00255900      -0.00912900      -0.01122800         13
Al         4.03053836       1.92352671       0.69112573         0.00000000       0.00000000       0.00000000        -0.04999400      -0.00530300       0.02499200         13
Al         7.56686996       0.87234594       6.05844194         0.00000000       0.00000000       0.00000000        -0.06816300       0.00303800      -0.06642100         13
Al         2.93829199       4.93644672       1.39483233         0.00000000       0.00000000       0.00000000         0.00986000      -0.06208900      -0.01228200         13
Al         6.80979705       7.17682914       1.20178549         0.00000000       0.00000000       0.00000000         0.05490300      -0.03058100       0.00541100         13
Al         9.70810191       7.88153175       3.20034102         0.00000000       0.00000000       0.00000000        -0.06458200       0.07328500       0.01938500         13
Al         5.91740675       1.39387185       3.29633977         0.00000000       0.00000000       0.00000000         0.05115800       0.04631000       0.01187800         13
Al         6.70291612       6.37677025       7.36326313         0.00000000       0.00000000       0.00000000        -0.08535400      -0.01086700      -0.05023700         13
Al         6.00747984       4.20706682       1.85643309         0.00000000       0.00000000       0.00000000         0.03308400      -0.06691900       0.01787800         13
Al        10.67010402       5.15775317       4.29543213         0.00000000       0.00000000       0.00000000        -0.01363300      -0.06599100       0.02773700         13
Al         9.09691877       5.15969592       1.56972494         0.00000000       0.00000000       0.00000000         0.04290900      -0.02856000       0.03094400         13
Al         9.08231898       4.19781187       6.90631444         0.00000000       0.00000000       0.00000000         0.08957100      -0.06098300      -0.01793500         13
Al         3.09743803      -0.18463933       2.92696162         0.00000000       0.00000000       0.00000000         0.02018200       0.09648500       0.03449000         13
Al        10.65740819       1.61603535       5.31314137         0.00000000       0.00000000       0.00000000        -0.01897900       0.11140800      -0.03687300         13
Al         7.84553174       1.82158500       0.67412413         0.00000000       0.00000000       0.00000000         0.00499000       0.02392800       0.03237900         13
Al        10.82419703       6.82175277       6.96117213         0.00000000       0.00000000       0.00000000         0.04451700      -0.00701800       0.03256000         13
Al         8.22883801       3.23572702       3.97213360         0.00000000       0.00000000       0.00000000         0.03322600       0.00544500       0.00051700         13
Al         1.06554999      -0.06958305       0.44715583         0.00000000       0.00000000       0.00000000         0.01743700      -0.03331200      -0.01956000         13
Al         2.97667345       3.48526655       7.26108217         0.00000000       0.00000000       0.00000000        -0.00866800      -0.06249600       0.00224500         13
2
pbc=[T, T, T] config_type=high_entropy dft_energy=-6.79302269 Lattice="3.46279200 0.00000000 0.00000000 0.83788500 4.82009700 0.00000000 0.10867500 0.23762800 2.61635100" Properties=species:S:1:pos:R:3:velocities:R:3:dft_forces:R:3:Z:I:1
Al         1.56220333       3.91227210       1.42094431         0.00000000       0.00000000       0.00000000         0.16185600      -0.14387900      -0.06463500         13
Al         0.32275644       1.48240568       0.04416018         0.00000000       0.00000000       0.00000000        -0.16185600       0.14387900       0.06463500         13
2
pbc=[T, T, T] config_type=high_entropy dft_energy=9.41359179 Lattice="5.15623200 0.00000000 0.00000000 1.93028900 4.32702300 0.00000000 0.22231400 0.20531900 1.58733200" Properties=species:S:1:pos:R:3:velocities:R:3:dft_forces:R:3:Z:I:1
Al         6.21019282       3.04187901       1.22721472         0.00000000       0.00000000       0.00000000         0.22520200      -0.08059700      -0.02206500         13
Al         1.35802195       0.14502525       0.41067266         0.00000000       0.00000000       0.00000000        -0.22520200       0.08059700       0.02206500         13
3
pbc=[T, T, T] config_type=high_entropy dft_energy=-3.72249801 Lattice="6.55154700 0.00000000 0.00000000 2.78913700 5.66223900 0.00000000 0.30806000 -0.14293700 1.95837800" Properties=species:S:1:pos:R:3:velocities:R:3:dft_forces:R:3:Z:I:1
Al         7.66606745       2.98290281       1.14006698         0.00000000       0.00000000       0.00000000        -0.37983900       0.05468400       0.12112900         13
Al         5.02703714       4.77824655       1.44299574         0.00000000       0.00000000       0.00000000         0.26103400      -0.05614100      -0.07997100         13
Al         5.22612972       0.90585562       0.39909479         0.00000000       0.00000000       0.00000000         0.11880500       0.00145700      -0.04115800         13
2
pbc=[T, T, T] config_type=high_entropy dft_energy=-3.90418808 Lattice="4.17102700 0.00000000 0.00000000 1.14486700 3.71194700 0.00000000 0.59226400 0.26533000 1.98368900" Properties=species:S:1:pos:R:3:velocities:R:3:dft_forces:R:3:Z:I:1
Al         3.03404834       0.90397666       1.12536981         0.00000000       0.00000000       0.00000000        -1.74546300       0.28382700       0.20561800         13
Al         4.98332780       2.37727269       1.43753813         0.00000000       0.00000000       0.00000000         1.74546300      -0.28382700      -0.20561800         13
10
pbc=[T, T, T] config_type=high_entropy dft_energy=-25.02042729 Lattice="17.93918100 0.00000000 0.00000000 1.49290100 4.34682800 0.00000000 1.76284100 0.60912800 4.88806200" Properties=species:S:1:pos:R:3:velocities:R:3:dft_forces:R:3:Z:I:1
Al        15.56432047       2.81661358       3.87371008         0.00000000       0.00000000       0.00000000         0.00289300       0.00180200       0.00009000         13
Al         4.98985779       0.34619677       1.45545644         0.00000000       0.00000000       0.00000000        -0.00235900      -0.00424500       0.00298300         13
Al         2.68815028       2.35378817       3.38023100         0.00000000       0.00000000       0.00000000        -0.00524200       0.00244800       0.00063000         13
Al        13.28011010       4.78103232       5.84813746         0.00000000       0.00000000       0.00000000        -0.00439800      -0.00259700      -0.00084600         13
Al         3.71707838       3.22708790      -0.03031824         0.00000000       0.00000000       0.00000000         0.00600900       0.00621600      -0.00117100         13
Al        -0.08483205       0.86073918       1.90143177         0.00000000       0.00000000       0.00000000        -0.00158100       0.00100700      -0.00355100         13
Al         7.27324906      -1.65043523      -0.50115219         0.00000000       0.00000000       0.00000000         0.00669800       0.00098300      -0.00339700         13
Al        16.57179433       3.71091919       0.43767313         0.00000000       0.00000000       0.00000000         0.00255400      -0.00031600      -0.00717300         13
Al         7.76682746       1.82491663       2.92995847         0.00000000       0.00000000       0.00000000         0.00517900      -0.00049000       0.00593300         13
Al        14.27575395       5.65762285       2.42584211         0.00000000       0.00000000       0.00000000        -0.00975200      -0.00480900       0.00650400         13
8
pbc=[T, T, T] config_type=high_entropy dft_energy=-22.10521789 Lattice="12.24358800 0.00000000 0.00000000 2.15655200 4.90752900 0.00000000 1.19083000 0.27849500 4.45023400" Properties=species:S:1:pos:R:3:velocities:R:3:dft_forces:R:3:Z:I:1
Al        10.03952731       2.07809538       2.79447082         0.00000000       0.00000000       0.00000000         0.03708700      -0.11525700      -0.08412200         13
Al         7.49534293       3.92197158       0.28938336         0.00000000       0.00000000       0.00000000        -0.05592200       0.10390000       0.07231600         13
Al        11.09487687       4.52176072       0.82298147         0.00000000       0.00000000       0.00000000         0.08583100       0.01858600       0.00722300         13
Al         5.55380019       4.66260986       3.03888323         0.00000000       0.00000000       0.00000000         0.07982500       0.01050600       0.00606700         13
Al        -0.13110517      -0.79357854       2.54103754         0.00000000       0.00000000       0.00000000        -0.03363200       0.11232000       0.08518600         13
Al         4.53749836       2.23509173       5.02024698         0.00000000       0.00000000       0.00000000         0.04010300      -0.10633800      -0.07854300         13
Al        13.23714508       1.68841515       4.52040149         0.00000000       0.00000000       0.00000000        -0.07124800      -0.01148400      -0.00049700         13
Al         6.48913786       1.49684999       2.27172011         0.00000000       0.00000000       0.00000000        -0.08204400      -0.01223400      -0.00762900         13
6
pbc=[T, T, T] config_type=high_entropy dft_energy=-15.68691227 Lattice="5.06871200 0.00000000 0.00000000 2.44155800 4.96842500 0.00000000 0.50922600 0.02420200 2.89324400" Properties=species:S:1:pos:R:3:velocities:R:3:dft_forces:R:3:Z:I:1
Al         2.99413997       4.97718218       2.50440509         0.00000000       0.00000000       0.00000000        -0.41679400      -0.08395500      -0.13782400         13
Al         6.79142498       3.44770947       1.41019354         0.00000000       0.00000000       0.00000000        -0.29141000       0.07961000       0.03706300         13
Al         3.75074417       2.64745349       2.61665705         0.00000000       0.00000000       0.00000000         0.24707500      -0.08668700      -0.05188900         13
Al         2.46766415       1.12221958       1.52621176         0.00000000       0.00000000       0.00000000         0.44987800       0.00158400       0.11446900         13
Al         4.81751325       4.22912893       0.23885650         0.00000000       0.00000000       0.00000000         0.15524300      -0.02448200       0.06316100         13
Al         5.21255826       1.84161352       0.89310032         0.00000000       0.00000000       0.00000000        -0.14399300       0.11393000      -0.02497900         13
7
pbc=[T, T, T] config_type=high_entropy dft_energy=-18.19515024 Lattice="6.14719200 0.00000000 0.00000000 0.71685600 7.77366300 0.00000000 0.10295000 0.26481000 5.59913200" Properties=species:S:1:pos:R:3:velocities:R:3:dft_forces:R:3:Z:I:1
Al         0.24084566       4.81759878       1.18299284         0.00000000       0.00000000       0.00000000         0.15163300       0.06517400       0.10984300         13
Al         6.34783221       3.14892255       4.04966629         0.00000000       0.00000000       0.00000000        -0.05351900       0.42413100       0.19287100         13
Al         3.00307810       6.99120795       0.84442097         0.00000000       0.00000000       0.00000000        -0.14708200      -0.08104600       0.04446700         13
Al         0.85629183       6.64134210       3.87509873         0.00000000       0.00000000       0.00000000         0.10640400      -0.30639100       0.06539600         13
Al         2.54621198       2.52777908       0.63248548         0.00000000       0.00000000       0.00000000        -0.24985700      -0.01283900      -0.15155100         13
Al        -0.77227764       0.87975501       6.34851149         0.00000000       0.00000000       0.00000000         0.13868700      -0.19627200      -0.20184400         13
Al         3.82254655       5.23441672       3.48656037         0.00000000       0.00000000       0.00000000         0.05373400       0.10724300      -0.05918100         13
9
pbc=[T, T, T] config_type=high_entropy dft_energy=-29.06778354 Lattice="7.48151200 0.00000000 0.00000000 2.26285300 7.47195100 0.00000000 1.49217800 0.56345700 4.31036600" Properties=species:S:1:pos:R:3:velocities:R:3:dft_forces:R:3:Z:I:1
Al        10.74914900       6.59502957       2.05053500         0.00000000       0.00000000       0.00000000         0.07564900      -0.02681300      -0.01595500         13
Al         3.74373753       2.07033874       0.72091774         0.00000000       0.00000000       0.00000000        -0.13462700      -0.00622500      -0.02116500         13
Al         5.32819805       3.97667392       2.30144380         0.00000000       0.00000000       0.00000000         0.06812400      -0.08302800       0.09929700         13
Al         5.94397932       0.76779705       2.61475459         0.00000000       0.00000000       0.00000000        -0.30884800      -0.02247800       0.14544600         13
Al         6.24336463       6.51451093       1.11977994         0.00000000       0.00000000       0.00000000        -0.04150000       0.06595800       0.04040300         13
Al         0.72584281       2.30195577       1.69475563         0.00000000       0.00000000       0.00000000         0.23212100      -0.03615900      -0.04357400         13
Al         8.14942746       4.98734496       3.24905385         0.00000000       0.00000000       0.00000000         0.11893300       0.22112000      -0.14592100         13
Al         2.95417102       0.95460347       3.58408870         0.00000000       0.00000000       0.00000000         0.00437600      -0.02961800      -0.03593000         13
Al         3.48017043       5.18990033       4.62836534         0.00000000       0.00000000       0.00000000        -0.01422900      -0.08275700      -0.02260200         13
2
pbc=[T, T, T] config_type=high_entropy dft_energy=-1.90751575 Lattice="6.25360500 0.00000000 0.00000000 2.12723300 5.19995000 0.00000000 0.77326200 0.22570000 1.79298900" Properties=species:S:1:pos:R:3:velocities:R:3:dft_forces:R:3:Z:I:1
Al         3.81067995       2.07998520       1.65235662         0.00000000       0.00000000       0.00000000        -0.30813400      -0.07778400       0.15586200         13
Al         0.20841107       0.03829870       0.39151212         0.00000000       0.00000000       0.00000000         0.30813400       0.07778400      -0.15586200         13
3
pbc=[T, T, T] config_type=high_entropy dft_energy=-7.01323262 Lattice="6.10411300 0.00000000 0.00000000 1.22583100 7.04622900 0.00000000 0.71975100 0.91462800 1.78628400" Properties=species:S:1:pos:R:3:velocities:R:3:dft_forces:R:3:Z:I:1
Al         2.43934357       6.28486832       2.18013679         0.00000000       0.00000000       0.00000000         0.25869900      -0.03601500       0.09698300         13
Al         4.83505281       6.98074961       0.20512740         0.00000000       0.00000000       0.00000000        -0.13917800      -0.07185000      -0.07692600         13
Al         4.50733132       3.95270916       1.30340899         0.00000000       0.00000000       0.00000000        -0.11952100       0.10786500      -0.02005700         13
15
pbc=[T, T, T] config_type=high_entropy dft_energy=-47.76354650 Lattice="6.92486300 0.00000000 0.00000000 0.99918300 7.11891600 0.00000000 0.74402300 -3.05546700 7.54156900" Properties=species:S:1:pos:R:3:velocities:R:3:dft_forces:R:3:Z:I:1
Al         6.72843834      10.48906474       6.37467695         0.00000000       0.00000000       0.00000000        -0.07485700      -0.05534900      -0.05977000         13
Al         2.60987395       7.35813627       3.33551667         0.00000000       0.00000000       0.00000000         0.06868700       0.01570500       0.03274600         13
Al         5.37326046       7.71751610       1.77119322         0.00000000       0.00000000       0.00000000         0.10235700      -0.03504400       0.04884100         13
Al         4.03947037       9.79785860       7.92997943         0.00000000       0.00000000       0.00000000         2.52087800      -0.52849900      -1.57819000         13
Al         0.59291683       9.69562365       3.28509646         0.00000000       0.00000000       0.00000000         0.08360400      -0.01203000      -0.00270200         13
Al         0.33775048       5.69744583       4.84313218         0.00000000       0.00000000       0.00000000         0.03894000      -0.02287000      -0.04332500         13
Al         7.21600548       0.97608113       0.34904214         0.00000000       0.00000000       0.00000000        -1.80039700       0.32873500       1.34884100         13
Al         5.98498070       7.40833012       7.98511168         0.00000000       0.00000000       0.00000000         2.26834700       0.57601600      -1.60784100         13
Al         0.42063269       5.34945483       1.69140769         0.00000000       0.00000000       0.00000000        -2.22860700      -0.33107500       1.55261600         13
Al         1.74306103       8.08653570       6.39992314         0.00000000       0.00000000       0.00000000        -0.12129900       0.01891200      -0.05538000         13
Al         3.73455076       5.72326468       6.34646730         0.00000000       0.00000000       0.00000000         1.39421300       0.60452700      -1.30082700         13
Al         4.50774547       4.91956255       3.22556618         0.00000000       0.00000000       0.00000000         0.04233400       0.01913000       0.02699700         13
Al         5.29757589       8.06861313       4.91895625         0.00000000       0.00000000       0.00000000        -0.01901300      -0.03766000       0.07079800         13
Al         2.29594074       3.29827228       4.87564066         0.00000000       0.00000000       0.00000000        -0.00980500      -0.04145700       0.00259800         13
Al         2.35674221       2.94747903       1.71228870         0.00000000       0.00000000       0.00000000        -2.26538400      -0.49904000       1.56459900         13
2
pbc=[T, T, T] config_type=high_entropy dft_energy=-5.67675431 Lattice="5.56436500 0.00000000 0.00000000 0.01305000 5.59551000 0.00000000 0.33397300 1.10769700 2.16682100" Properties=species:S:1:pos:R:3:velocities:R:3:dft_forces:R:3:Z:I:1
Al         4.37216271       0.63648792       0.13707441         0.00000000       0.00000000       0.00000000         0.37593300      -0.01458000       0.01484900         13
Al         0.62697986       3.25207612       0.04454136         0.00000000       0.00000000       0.00000000        -0.37593300       0.01458000      -0.01484900         13
7
pbc=[T, T, T] config_type=high_entropy dft_energy=-16.42655891 Lattice="13.72962100 0.00000000 0.00000000 2.11042200 4.78051100 0.00000000 2.19146800 1.04969200 4.52015700" Properties=species:S:1:pos:R:3:velocities:R:3:dft_forces:R:3:Z:I:1
Al         9.54906270       0.24793519       3.79181209         0.00000000       0.00000000       0.00000000        -0.08467500      -0.00933900      -0.00196800         13
Al         8.56915306       3.59523438       2.68802155         0.00000000       0.00000000       0.00000000        -0.01801200       0.09350200       0.04522900         13
Al        16.29276831       3.73403380       2.72767502         0.00000000       0.00000000       0.00000000        -0.00544700       0.03295700       0.02203000         13
Al         5.55841869       5.20298138       3.86384619         0.00000000       0.00000000       0.00000000         0.09916000      -0.00905400      -0.00622900         13
Al         8.63454490       6.60638403       4.95329217         0.00000000       0.00000000       0.00000000         0.02908800      -0.11887400      -0.06200800         13
Al        13.30241162       2.23043877       1.57651810         0.00000000       0.00000000       0.00000000        -0.00957600       0.01027200       0.00516300         13
Al        10.30224316       0.75157087       0.44904290         0.00000000       0.00000000       0.00000000        -0.01053700       0.00053600      -0.00221700         13
16
pbc=[T, T, T] config_type=high_entropy dft_energy=-53.19997810 Lattice="8.80804300 0.00000000 0.00000000 1.28476200 7.21409900 0.00000000 0.01144700 1.91602700 6.05465600" Properties=species:S:1:pos:R:3:velocities:R:3:dft_forces:R:3:Z:I:1
Al         9.16521338       4.75162620       5.17693394         0.00000000       0.00000000       0.00000000        -0.02409300       0.01226500      -0.01064400         13
Al         8.51511844       1.09427899       5.20821542         0.00000000       0.00000000       0.00000000        -0.02839600      -0.00137200      -0.00750100         13
Al         1.36633027       2.59634863       3.05135196         0.00000000       0.00000000       0.00000000         0.02738600      -0.01261300       0.01748800         13
Al         7.43713436       6.94602617       3.68065167         0.00000000       0.00000000       0.00000000        -0.02543400       0.00640200      -0.01351200         13
Al         4.38330425       7.59638443       4.56697643         0.00000000       0.00000000       0.00000000         0.02366600      -0.01159900       0.01689200         13
Al         2.07002374       2.52324795       6.68911547         0.00000000       0.00000000       0.00000000        -0.02961400       0.01552700      -0.01965200         13
Al         4.42853049       1.93777478       2.18285123         0.00000000       0.00000000       0.00000000        -0.02413500      -0.00005800      -0.01027600         13
Al         6.79936791       3.35348337       3.68169460         0.00000000       0.00000000       0.00000000        -0.02902900       0.00577900      -0.01521100         13
Al         2.01972509       6.25941887       3.00631275         0.00000000       0.00000000       0.00000000         0.02988800       0.00243900       0.00880100         13
Al         3.74622729       4.02186705       4.52065162         0.00000000       0.00000000       0.00000000         0.02478000      -0.00192700       0.00834000         13
Al         2.70904775       4.16023121       0.69216177         0.00000000       0.00000000       0.00000000        -0.02696100      -0.00013500      -0.00997700         13
Al         8.48244308       6.75592828       7.57852665         0.00000000       0.00000000       0.00000000         0.02797800      -0.01091400       0.01384300         13
Al         5.06737078       5.60198095       2.15916168         0.00000000       0.00000000       0.00000000        -0.02946500       0.01282100      -0.01615000         13
Al         5.47140530       1.78141313       6.04039393         0.00000000       0.00000000       0.00000000         0.02975100      -0.00575500       0.01065900         13
Al         7.81173633       1.25887725       1.49493848         0.00000000       0.00000000       0.00000000         0.02665600      -0.00403300       0.00964900         13
Al         6.09351525       3.46843451       0.00523220         0.00000000       0.00000000       0.00000000         0.02702100      -0.00682700       0.01725100         13
4
pbc=[T, T, T] config_type=high_entropy dft_energy=-9.52784805 Lattice="6.72951200 0.00000000 0.00000000 0.53928400 7.65781900 0.00000000 0.39084500 0.65951200 2.02375400" Properties=species:S:1:pos:R:3:velocities:R:3:dft_forces:R:3:Z:I:1
Al         6.73466795       6.14831366       0.90924934         0.00000000       0.00000000       0.00000000        -0.13178400      -0.34721400       0.10453600         13
Al         5.17895712       2.95140032       1.51971644         0.00000000       0.00000000       0.00000000         0.20490300       0.38650800      -0.10164600         13
Al         8.50933921       3.20141373       2.08013472         0.00000000       0.00000000       0.00000000        -0.13767700       0.41267000      -0.04597200         13
Al         3.29472748       5.52521813       0.28312554         0.00000000       0.00000000       0.00000000         0.06455900      -0.45196400       0.04308200         13
16
pbc=[T, T, T] config_type=high_entropy dft_energy=-58.27483558 Lattice="6.35468200 0.00000000 0.00000000 0.15809800 5.40099900 0.00000000 0.06756000 0.03477400 6.92795100" Properties=species:S:1:pos:R:3:velocities:R:3:dft_forces:R:3:Z:I:1
Al         5.10423519       4.19795155       5.39320436         0.00000000       0.00000000       0.00000000         0.03668600      -0.02499500       0.08058400         13
Al         5.44119321       1.42260357       1.47168128         0.00000000       0.00000000       0.00000000        -0.03653800       0.08366100      -0.08806300         13
Al         3.82902534       0.08650892       3.20479230         0.00000000       0.00000000       0.00000000        -0.03685500       0.01155200      -0.08324300         13
Al         1.89266227       4.18252299       1.92848209         0.00000000       0.00000000       0.00000000         0.03474200      -0.06019900       0.09993500         13
Al         5.51861985       4.12889626       1.47421730         0.00000000       0.00000000       0.00000000        -0.03018500       0.02412100      -0.09642200         13
Al         1.81671845       1.47762615       1.92901735         0.00000000       0.00000000       0.00000000         0.01889300      -0.01103700       0.08500400         13
Al         0.20303330       0.14338823       3.66263819         0.00000000       0.00000000       0.00000000         0.03398400      -0.08391500       0.09538800         13
Al         0.84230699       5.50503156       6.67155094         0.00000000       0.00000000       0.00000000        -0.02648900       0.03669800      -0.12295400         13
Al         6.63761562       2.83894642       3.65781867         0.00000000       0.00000000       0.00000000         0.01906700      -0.02350100       0.10121900         13
Al         3.49805640       2.86175735       7.12746560         0.00000000       0.00000000       0.00000000         0.00712800      -0.06462200       0.09335600         13
Al         2.37370065       4.13935871       4.93849420         0.00000000       0.00000000       0.00000000        -0.02294700       0.07356600      -0.10794700         13
Al         2.29460920       1.44129334       4.93372742         0.00000000       0.00000000       0.00000000        -0.03020900       0.04817100      -0.07120400         13
Al         5.02434445       1.50072892       5.39273821         0.00000000       0.00000000       0.00000000         0.03301100      -0.05681500       0.09264500         13
Al         3.90522005       2.78291929       3.20070721         0.00000000       0.00000000       0.00000000        -0.02042600       0.07171800      -0.08134000         13
Al         3.50328357       5.52692520       0.19643743         0.00000000       0.00000000       0.00000000         0.04427900      -0.05719900       0.08157900         13
Al         7.11808415       2.80461418       6.66760601         0.00000000       0.00000000       0.00000000        -0.02414000       0.03279700      -0.07853600         13
4
pbc=[T, T, T] config_type=high_entropy dft_energy=-12.66421901 Lattice="4.86953700 0.00000000 0.00000000 -1.94868000 5.59109500 0.00000000 0.37291500 1.86584100 3.90408100" Properties=species:S:1:pos:R:3:velocities:R:3:dft_forces:R:3:Z:I:1
Al         5.81173771       2.17205044       2.18193191         0.00000000       0.00000000       0.00000000        -0.02555500       0.05266800       0.05356500         13
Al         4.72349750       3.99662362       0.15557910         0.00000000       0.00000000       0.00000000        -0.02880500       0.03812400       0.01563400         13
Al         3.12761094       3.88605831       3.09963018         0.00000000       0.00000000       0.00000000         0.03834100      -0.05481200      -0.03847300         13
Al         6.80173779       5.78771723       1.21237720         0.00000000       0.00000000       0.00000000         0.01601900      -0.03597900      -0.03072500         13
6
pbc=[T, T, T] config_type=high_entropy dft_energy=-18.06369125 Lattice="7.30123100 0.00000000 0.00000000 2.58552500 4.89794200 0.00000000 1.88026700 0.08214000 4.98136600" Properties=species:S:1:pos:R:3:velocities:R:3:dft_forces:R:3:Z:I:1
Al         5.14537809       0.75834918       4.26980423         0.00000000       0.00000000       0.00000000        -0.10126000      -0.00725400      -0.02323000         13
Al         8.06681776       0.74156601       1.71838821         0.00000000       0.00000000       0.00000000        -0.08946700      -0.04541500      -0.13369400         13
Al         7.85542541       4.10720691       1.47650822         0.00000000       0.00000000       0.00000000         0.04365300       0.01633800      -0.02028500         13
Al         5.07088445       2.50443197       1.24864536         0.00000000       0.00000000       0.00000000         0.10239000       0.01297100       0.01893000         13
Al         4.94631006       4.03242339       4.05614835         0.00000000       0.00000000       0.00000000        -0.04492900      -0.01572100       0.02036800         13
Al         2.14343981       2.48587415       3.82708198         0.00000000       0.00000000       0.00000000         0.08961300       0.03908200       0.13791100         13
5
pbc=[T, T, T] config_type=high_entropy dft_energy=-15.90152525 Lattice="6.63862800 0.00000000 0.00000000 2.12264200 5.13317100 0.00000000 2.22981000 -0.76554100 4.00462100" Properties=species:S:1:pos:R:3:velocities:R:3:dft_forces:R:3:Z:I:1
Al         2.19650396       0.37050870      -0.67486783         0.00000000       0.00000000       0.00000000        -0.02262100      -0.14772100      -0.00367600         13
Al         2.06867315       1.41737522       2.33014340         0.00000000       0.00000000       0.00000000         0.30119700      -0.00689500       0.11437700         13
Al         5.30784661       3.19061107       1.04520376         0.00000000       0.00000000       0.00000000        -0.11012200       0.19515600      -0.07240200         13
Al         7.22421937       5.46293625       0.36942303         0.00000000       0.00000000       0.00000000        -0.16366000      -0.07490300       0.00293100         13
Al         4.63418956       2.45378649       3.94130030         0.00000000       0.00000000       0.00000000        -0.00479400       0.03436300      -0.04122900         13
2
pbc=[T, T, T] config_type=high_entropy dft_energy=-5.07933951 Lattice="5.21977300 0.00000000 0.00000000 1.46495800 5.02394100 0.00000000 0.00748800 0.07287000 2.20379700" Properties=species:S:1:pos:R:3:velocities:R:3:dft_forces:R:3:Z:I:1
Al         4.37491353       5.05695740       0.86730828         0.00000000       0.00000000       0.00000000         0.26727000       0.20947200       0.00361900         13
Al         5.51352351       2.01927580       1.97717467         0.00000000       0.00000000       0.00000000        -0.26727000      -0.20947200      -0.00361900         13
2
pbc=[T, T, T] config_type=high_entropy dft_energy=-5.41998921 Lattice="9.50601900 0.00000000 0.00000000 1.04225200 1.99647900 0.00000000 0.18235300 -0.69929200 3.31430400" Properties=species:S:1:pos:R:3:velocities:R:3:dft_forces:R:3:Z:I:1
Al         5.24508130       1.10160017       0.69045325         0.00000000       0.00000000       0.00000000         0.52164800      -0.12878700      -0.07344600         13
Al         8.27072712       0.55794014       2.38796426         0.00000000       0.00000000       0.00000000        -0.52164800       0.12878700       0.07344600         13
18
pbc=[T, T, T] config_type=high_entropy dft_energy=-58.24367389 Lattice="7.35204400 0.00000000 0.00000000 0.67240100 7.05990200 0.00000000 0.51212800 2.20235300 9.27380600" Properties=species:S:1:pos:R:3:velocities:R:3:dft_forces:R:3:Z:I:1
Al         1.20107927       2.93424088       2.61840210         0.00000000       0.00000000       0.00000000         0.06813400       0.05618600       0.10057900         13
Al         1.51391936       2.48693389       5.50028624         0.00000000       0.00000000       0.00000000         0.03905400      -0.04543500       0.14319900         13
Al         8.66985142       2.30415607       8.47181747         0.00000000       0.00000000       0.00000000        -0.15784400       0.09905900      -0.06946600         13
Al         5.76650309       1.89017792       6.54921029         0.00000000       0.00000000       0.00000000         0.15909700       0.02940300       0.07075500         13
Al         5.36643348       5.99003637       1.84092065         0.00000000       0.00000000       0.00000000        -0.18531500      -0.09786200       0.08837600         13
Al         5.81034861       3.64716660       4.10212967         0.00000000       0.00000000       0.00000000         0.18138300      -0.00909400      -0.06515700         13
Al         8.53673403       5.23022514       4.42156080         0.00000000       0.00000000       0.00000000        -0.06773200       0.03683300      -0.15283200         13
Al         5.45132560       1.13907253       0.01752845         0.00000000       0.00000000       0.00000000         0.08002200       0.07652700      -0.08409900         13
Al         1.46712471       5.18511489       9.13193566         0.00000000       0.00000000       0.00000000        -0.10968900       0.01456100      -0.19007900         13
Al         1.27623300       7.00645973       6.73217027         0.00000000       0.00000000       0.00000000        -0.04347000      -0.00262400       0.03256100         13
Al         2.35928245       6.03651614       1.77100291         0.00000000       0.00000000       0.00000000         0.08900700      -0.09272800       0.17764800         13
Al         7.20219016       4.39838916       6.85103145         0.00000000       0.00000000       0.00000000        -0.15685900      -0.07790800       0.06629600         13
Al         3.85749699       7.93091516       3.66442342         0.00000000       0.00000000       0.00000000        -0.09021400       0.04562000      -0.14318800         13
Al         5.53380761       6.31395999       5.45189076         0.00000000       0.00000000       0.00000000         0.07419500      -0.04046700       0.01934800         13
Al         3.95714984       3.21199285       1.52414928         0.00000000       0.00000000       0.00000000         0.07863200       0.13387100       0.13926200         13
Al         3.20445031       4.68117513       6.76066227         0.00000000       0.00000000       0.00000000        -0.24245600      -0.05463900      -0.03276500         13
Al         6.16321005       6.53432968       8.60015330         0.00000000       0.00000000       0.00000000         0.19931100      -0.07454400      -0.13681200         13
Al         7.52831226       7.92709658       3.93773183         0.00000000       0.00000000       0.00000000         0.08474300       0.00324000       0.03637400         13
13
pbc=[T, T, T] config_type=high_entropy dft_energy=-44.59761918 Lattice="8.75869200 0.00000000 0.00000000 1.21008500 8.44724100 0.00000000 1.37718000 1.07363800 4.01074800" Properties=species:S:1:pos:R:3:velocities:R:3:dft_forces:R:3:Z:I:1
Al         5.97277606       1.81474064       2.45154194         0.00000000       0.00000000       0.00000000        -0.00423600      -0.00450100      -0.00155600         13
Al         2.90776645       2.60984318       3.07504486         0.00000000       0.00000000       0.00000000        -0.00645600      -0.00159100       0.00283000         13
Al         9.39405990       6.39289514       2.75803478         0.00000000       0.00000000       0.00000000        -0.00021500       0.00523900      -0.00018800         13
Al         3.26190541       8.08143116       3.98579013         0.00000000       0.00000000       0.00000000         0.00805800      -0.00722500      -0.00279600         13
Al         3.38089828       0.19922579       1.22664435         0.00000000       0.00000000       0.00000000        -0.00750900      -0.01005500       0.00724400         13
Al         4.13879641       3.18263402       0.30323588         0.00000000       0.00000000       0.00000000        -0.00599800      -0.00122900       0.00373200         13
Al         6.75735119       4.78050210       1.54382838         0.00000000       0.00000000       0.00000000        -0.00153700       0.00665200      -0.01065800         13
Al         7.62147772       7.80350399       0.58585151         0.00000000       0.00000000       0.00000000         0.00129800      -0.00007100       0.00432600         13
Al         3.73204416       5.64992657       2.13605162         0.00000000       0.00000000       0.00000000        -0.00099000       0.00143600       0.00015500         13
Al         6.40646988       7.28373758       3.37732195         0.00000000       0.00000000       0.00000000        -0.00513900      -0.00672800       0.00589900         13
Al         9.82569150       3.95898476       0.89972534         0.00000000       0.00000000       0.00000000         0.00296800       0.00532100      -0.00222700         13
Al         0.23226469       0.99003615       1.81834796         0.00000000       0.00000000       0.00000000         0.01358800      -0.00171900      -0.00767300         13
Al         7.18239908       2.33546073      -0.33740876         0.00000000       0.00000000       0.00000000         0.00616700       0.01447000       0.00091100         13
5
pbc=[T, T, T] config_type=high_entropy dft_energy=7.16337458 Lattice="7.93074500 0.00000000 0.00000000 0.20883000 1.97295300 0.00000000 1.02712200 -0.62313500 2.79309300" Properties=species:S:1:pos:R:3:velocities:R:3:dft_forces:R:3:Z:I:1
Al         1.00883480       1.87083026       1.62246051         0.00000000       0.00000000       0.00000000        -0.04391900      -0.06778000      -0.06030000         13
Al         7.14057524       1.05473871       0.93706019         0.00000000       0.00000000       0.00000000        -2.15347700       0.98961600      -6.08277400         13
Al         4.12368499       1.52222787       1.15594711         0.00000000       0.00000000       0.00000000        -1.78662200       1.05156500      -2.23717700         13
Al         2.80590511       2.67631917       2.30501574         0.00000000       0.00000000       0.00000000         2.20047400      -0.93481900       6.02087000         13
Al         5.83718089       2.20519680       2.09978413         0.00000000       0.00000000       0.00000000         1.78354400      -1.03858200       2.35938100         13
14
pbc=[T, T, T] config_type=high_entropy dft_energy=-49.68686056 Lattice="7.06622200 0.00000000 0.00000000 0.43454000 5.46129800 0.00000000 3.29661900 0.62719500 7.51012800" Properties=species:S:1:pos:R:3:velocities:R:3:dft_forces:R:3:Z:I:1
Al         7.06330653       4.86110151       2.03727164         0.00000000       0.00000000       0.00000000         0.00359600       0.04214400      -0.01927300         13
Al         8.51366350       1.33025988       6.75741560         0.00000000       0.00000000       0.00000000         0.00875300       0.00011900      -0.01320700         13
Al         4.69677049       4.19709505       3.87552240         0.00000000       0.00000000       0.00000000        -0.07790500      -0.00335100       0.01160100         13
Al         2.59300940       0.91159449       0.56580577         0.00000000       0.00000000       0.00000000        -0.01427100       0.00541800      -0.07620600         13
Al         7.86615152       4.41906878       8.25511873         0.00000000       0.00000000       0.00000000         0.01064200      -0.03161900      -0.03119500         13
Al         4.70343692       1.46300715       2.68044321         0.00000000       0.00000000       0.00000000        -0.02224600      -0.00801600       0.07344000         13
Al         7.02857259       2.10295131       0.99404600         0.00000000       0.00000000       0.00000000        -0.04879800       0.06420400       0.05573400         13
Al         7.10779106       2.65847787       4.36198626         0.00000000       0.00000000       0.00000000         0.08360800      -0.01828100      -0.03080800         13
Al         5.12423901       4.38401560       7.01821812         0.00000000       0.00000000       0.00000000         0.00602200      -0.03955900      -0.00587000         13
Al         9.48449317       3.97803359       5.77254345         0.00000000       0.00000000       0.00000000        -0.02229200       0.01810400       0.02965200         13
Al         2.40571908       6.01374130       3.54637605         0.00000000       0.00000000       0.00000000        -0.00169400      -0.00649000      -0.02515600         13
Al         6.57066311      -0.02209391       5.07902962         0.00000000       0.00000000       0.00000000         0.03111800      -0.03243000      -0.00635700         13
Al         9.36779004       3.23538184       2.50252046         0.00000000       0.00000000       0.00000000         0.00387200       0.00530600       0.00539200         13
Al         4.16311497       1.60201372       5.60572821         0.00000000       0.00000000       0.00000000         0.03959500       0.00445100       0.03225200         13
4
pbc=[T, T, T] config_type=high_entropy dft_energy=-12.49837062 Lattice="5.52049500 0.00000000 0.00000000 -2.62904300 5.78384600 0.00000000 0.06004800 2.05864600 3.47317100" Properties=species:S:1:pos:R:3:velocities:R:3:dft_forces:R:3:Z:I:1
Al         5.12135222       1.98760630       2.59979748         0.00000000       0.00000000       0.00000000         0.23412500      -0.00965100      -0.01333200         13
Al         1.33161571       2.30076388       0.55277724         0.00000000       0.00000000       0.00000000        -0.16458900      -0.16786500      -0.20338100         13
Al         6.75275353       4.82923595       1.41907559         0.00000000       0.00000000       0.00000000         0.11931000       0.13114200       0.31433600         13
Al         2.42528478       2.09990504       2.94900453         0.00000000       0.00000000       0.00000000        -0.18884600       0.04637400      -0.09762300         13
2
pbc=[T, T, T] config_type=high_entropy dft_energy=-5.10643699 Lattice="6.62587300 0.00000000 0.00000000 1.33050400 5.35664800 0.00000000 0.73196000 1.05723300 2.09765400" Properties=species:S:1:pos:R:3:velocities:R:3:dft_forces:R:3:Z:I:1
Al        -0.46370821       2.31971672       0.02897336         0.00000000       0.00000000       0.00000000         0.31807700       0.01613900      -0.14559100         13
Al         3.38188690       5.05704135       0.91834014         0.00000000       0.00000000       0.00000000        -0.31807700      -0.01613900       0.14559100         13
18
pbc=[T, T, T] config_type=high_entropy dft_energy=-28.25435089 Lattice="14.32076100 0.00000000 0.00000000 1.04792000 4.03930200 0.00000000 1.54581200 0.04129600 4.30398000" Properties=species:S:1:pos:R:3:velocities:R:3:dft_forces:R:3:Z:I:1
Al         9.05153870       4.49805518       4.06046076         0.00000000       0.00000000       0.00000000        -0.97354700       5.06999000       4.79801800         13
Al        11.07932878       1.31646237       3.74465916         0.00000000       0.00000000       0.00000000        -4.78947400      -2.95121400       2.37690700         13
Al        12.20494573       1.53862728       1.86268584         0.00000000       0.00000000       0.00000000        -3.16389600      -1.67741500      -8.81702700         13
Al         9.00787557       2.48596310       4.95796885         0.00000000       0.00000000       0.00000000        -6.02012200      -2.35456400      -2.04612500         13
Al        13.15916249       3.44704923       1.71438884         0.00000000       0.00000000       0.00000000        -0.53701100       2.05736400      -8.02288100         13
Al         3.05082375       2.87917469       1.07623707         0.00000000       0.00000000       0.00000000        -1.31033300       5.14556500       4.11161600         13
Al         8.50922029       1.03027432       1.99621545         0.00000000       0.00000000       0.00000000         2.95233600       1.03440500      -1.92073400         13
Al        14.36586582       1.70946993       2.22407526         0.00000000       0.00000000       0.00000000         6.38299800      -0.53228500      -1.24972000         13
Al        13.13856029       0.31139854       3.40364988         0.00000000       0.00000000       0.00000000         5.31817600      -3.96996500       6.21491700         13
Al         8.59102814       3.16046967       2.38132926         0.00000000       0.00000000       0.00000000        -2.22273800      -2.68589300       2.51943000         13
Al        10.79565716       3.14797121       2.25857707         0.00000000       0.00000000       0.00000000         1.18997300       1.49798000      -1.75426200         13
Al         6.08471491       2.62194137       3.76647078         0.00000000       0.00000000       0.00000000         5.04536600       4.96680500      -2.56157900         13
Al         1.97101132       1.01867877       1.40491564         0.00000000       0.00000000       0.00000000        -3.81823000      -1.56376100       4.55714100         13
Al        11.38931917       2.45778672      -0.62661500         0.00000000       0.00000000       0.00000000         1.25359300       2.93580200       8.29127600         13
Al         6.00077614       0.55537716       3.04233020         0.00000000       0.00000000       0.00000000        -1.04701000      -1.25028000      -6.63346900         13
Al         4.06931299       0.96449212       0.87189067         0.00000000       0.00000000       0.00000000         6.81754000      -6.06672400       6.96109100         13
Al         4.16320680       1.58060258       3.70034829         0.00000000       0.00000000       0.00000000        -7.96293000      -0.10796700      -8.13463400         13
Al         9.41743564       3.45854096       0.22103705         0.00000000       0.00000000       0.00000000         2.88531000       0.45215800       1.31003500         13
9
pbc=[T, T, T] config_type=high_entropy dft_energy=-16.93517338 Lattice="7.39991000 0.00000000 0.00000000 3.11519800 6.48761600 0.00000000 0.85517700 0.06112800 2.56059100" Properties=species:S:1:pos:R:3:velocities:R:3:dft_forces:R:3:Z:I:1
Al         2.79068907       1.93811683       2.69824011         0.00000000       0.00000000       0.00000000         0.42513800      -4.24533000       0.33716000         13
Al         3.16436471       3.88116564       1.94416775         0.00000000       0.00000000       0.00000000        -2.16301600      -0.06903500       1.59832500         13
Al         5.19651485       5.32313643       1.83858985         0.00000000       0.00000000       0.00000000         2.60353200       6.80506400      -0.07121800         13
Al         5.09339263       2.04934278       2.01648788         0.00000000       0.00000000       0.00000000        -1.23231700      -6.07298000       0.16659000         13
Al         6.98773980       4.60382311       0.92031759         0.00000000       0.00000000       0.00000000         7.33694100      -0.31466000      -1.80359100         13
Al         5.05067923       3.64088971       0.53181277         0.00000000       0.00000000       0.00000000         1.43872300      -1.65181300      -2.12202500         13
Al         3.27924077       5.79523423       1.05481052         0.00000000       0.00000000       0.00000000        -0.83608000      -0.37004600      -1.00177100         13
Al         5.65973741       0.01571103       0.44155826         0.00000000       0.00000000       0.00000000        -6.24004900       0.29855600       1.00499800         13
Al         7.55500323       1.41238371       1.34108460         0.00000000       0.00000000       0.00000000        -1.33287100       5.62024400       1.89153200         13
3
pbc=[T, T, T] config_type=high_entropy dft_energy=-7.99322462 Lattice="4.21132400 0.00000000 0.00000000 0.28063300 4.19311300 0.00000000 1.98779000 0.00904000 6.00864300" Properties=species:S:1:pos:R:3:velocities:R:3:dft_forces:R:3:Z:I:1
Al         2.45738662      -0.38655820       0.68176597         0.00000000       0.00000000       0.00000000         0.04745500       0.08128600       0.08569500         13
Al         4.57809413       1.91555477       2.42234982         0.00000000       0.00000000       0.00000000        -0.05288000      -0.08244900      -0.05293700         13
Al         2.41210511       0.66525956       4.48417265         0.00000000       0.00000000       0.00000000         0.00542500       0.00116300      -0.03275800         13
14
pbc=[T, T, T] config_type=high_entropy dft_energy=-32.41469775 Lattice="8.97760700 0.00000000 0.00000000 1.44903100 9.87327400 0.00000000 1.51209800 -0.01283900 7.09714600" Properties=species:S:1:pos:R:3:velocities:R:3:dft_forces:R:3:Z:I:1
Al        10.01100090       4.62211950       5.60412120         0.00000000       0.00000000       0.00000000        -0.08771600       0.05583100       0.17292700         13
Al         9.15623967       1.07566218       1.65665414         0.00000000       0.00000000       0.00000000        -0.01321700      -0.14910900       0.04607800         13
Al         2.36425449       1.14653402       4.23553226         0.00000000       0.00000000       0.00000000        -0.19819400      -0.29665900       0.12346700         13
Al         6.39425984       4.67809462       5.49977626         0.00000000       0.00000000       0.00000000         0.11125200       0.39348600      -0.16323600         13
Al         8.92210965       7.60508063       1.50770349         0.00000000       0.00000000       0.00000000        -0.12174500       0.03200700       0.00475300         13
Al         9.12017287      10.70703101       7.27584235         0.00000000       0.00000000       0.00000000         0.07680500      -0.41832000      -0.09488100         13
Al         4.62562947       4.05285076       2.68540198         0.00000000       0.00000000       0.00000000         0.17704600       0.25723600      -0.08581900         13
Al         9.85586695       9.04436681       4.41563200         0.00000000       0.00000000       0.00000000         0.13322700       0.06387900      -0.06888000         13
Al         1.95191324       4.98018166       0.84506960         0.00000000       0.00000000       0.00000000        -0.23091500       0.24578300      -0.09560200         13
Al        12.58061677       7.81527754       6.01203764         0.00000000       0.00000000       0.00000000        -0.03591000       0.21570000       0.16288700         13
Al         8.03390510       4.26223264       2.48782900         0.00000000       0.00000000       0.00000000         0.03523900       0.15908600       0.00750900         13
Al         5.81310300      10.26581674       6.81846255         0.00000000       0.00000000       0.00000000        -0.14671300      -0.36386600      -0.14896800         13
Al         5.68122799       7.05052171       0.70233360         0.00000000       0.00000000       0.00000000         0.23042300      -0.06108600      -0.02434700         13
Al         6.38927940       8.14084082       4.01287077         0.00000000       0.00000000       0.00000000         0.07041900      -0.13397000       0.16411200         13
14
pbc=[T, T, T] config_type=high_entropy dft_energy=-29.37371674 Lattice="6.09217500 0.00000000 0.00000000 -2.89592400 7.16396000 0.00000000 1.05195700 1.21328300 3.21179200" Properties=species:S:1:pos:R:3:velocities:R:3:dft_forces:R:3:Z:I:1
Al         3.72485488       6.93129368       3.78243833         0.00000000       0.00000000       0.00000000         1.10261700      -0.20453500       0.84209000         13
Al         6.55752434       4.14391983       1.99823062         0.00000000       0.00000000       0.00000000         0.12102900       0.40296100       0.57567600         13
Al        10.44236794       7.02475808       1.48453569         0.00000000       0.00000000       0.00000000        -0.01271900       0.62369400       0.38776200         13
Al         4.99090876       5.00413523       0.24603198         0.00000000       0.00000000       0.00000000        -0.56295000       0.09802200      -0.46555200         13
Al         4.89959233       2.79646221       1.07149106         0.00000000       0.00000000       0.00000000        -0.01588600      -0.38606200       1.01818700         13
Al         5.97524798       8.36079741       2.42742265         0.00000000       0.00000000       0.00000000        -0.45332100       1.56702000       0.45948900         13
Al         7.15128527       2.13011144       0.79009434         0.00000000       0.00000000       0.00000000         0.18928500      -0.74567000      -1.14385200         13
Al         8.22484236       5.45829123       2.94498105         0.00000000       0.00000000       0.00000000        -0.10478300       0.36978500      -0.18959300         13
Al         6.59718678       6.39036466       1.18133991         0.00000000       0.00000000       0.00000000        -0.00254200       0.07244100      -0.67481000         13
Al         2.71743665       3.56825901       1.56214775         0.00000000       0.00000000       0.00000000        -0.00822800      -1.22763100       0.86940200         13
Al         5.47860123       0.82788666      -0.15230248         0.00000000       0.00000000       0.00000000         1.02222900      -1.11708400      -0.67960300         13
Al         4.28735001       2.69703931       3.35161454         0.00000000       0.00000000       0.00000000        -0.00479700      -0.82801800       0.29154600         13
Al         4.38176596       4.90083915       2.51032202         0.00000000       0.00000000       0.00000000        -0.11837000      -0.13283600      -0.40670400         13
Al         8.27995532       7.65918488       2.13485697         0.00000000       0.00000000       0.00000000        -1.15156200       1.50791200      -0.88403900         13
3
pbc=[T, T, T] config_type=high_entropy dft_energy=-10.33075627 Lattice="4.39271900 0.00000000 0.00000000 1.60247500 5.22803200 0.00000000 0.98208500 0.46098200 2.22340500" Properties=species:S:1:pos:R:3:velocities:R:3:dft_forces:R:3:Z:I:1
Al         3.03278101       1.44123606       0.94477286         0.00000000       0.00000000       0.00000000         0.03508100      -0.04423000       0.06502600         13
Al         1.69551501       3.54217765       3.13593792         0.00000000       0.00000000       0.00000000         0.03113400       0.02586700      -0.00351300         13
Al         2.79171510       4.73824294       0.88917975         0.00000000       0.00000000       0.00000000        -0.06621500       0.01836300      -0.06151200         13
2
pbc=[T, T, T] config_type=high_entropy dft_energy=7.37482451 Lattice="5.17807100 0.00000000 0.00000000 -2.53378700 4.68076600 0.00000000 0.72404600 -0.40825200 1.43098400" Properties=species:S:1:pos:R:3:velocities:R:3:dft_forces:R:3:Z:I:1
Al         3.90828068       3.67325705      -0.01453343         0.00000000       0.00000000       0.00000000         0.10284500       0.00413900      -0.05949000         13
Al         1.88294698       1.63055137       1.02683675         0.00000000       0.00000000       0.00000000        -0.10284500      -0.00413900       0.05949000         13
2
pbc=[T, T, T] config_type=high_entropy dft_energy=10.06489420 Lattice="5.99648500 0.00000000 0.00000000 2.24097900 5.29227200 0.00000000 0.31344700 0.20334500 1.57216700" Properties=species:S:1:pos:R:3:velocities:R:3:dft_forces:R:3:Z:I:1
Al         6.18891954       5.73152638       1.85281429         0.00000000       0.00000000       0.00000000         0.08666800       0.22835300      -0.04668600         13
Al         8.67619943       3.38766148       0.86157838         0.00000000       0.00000000       0.00000000        -0.08666800      -0.22835300       0.04668600         13
2
pbc=[T, T, T] config_type=high_entropy dft_energy=-5.29687407 Lattice="2.98548700 0.00000000 0.00000000 0.86862600 5.62582200 0.00000000 -1.35435200 2.04690400 4.87973900" Properties=species:S:1:pos:R:3:velocities:R:3:dft_forces:R:3:Z:I:1
Al         2.40687323       1.03641012       1.38662654         0.00000000       0.00000000       0.00000000        -0.00506800      -0.16792300      -0.04248000         13
Al         1.38511306       3.86841856      -0.19424135         0.00000000       0.00000000       0.00000000         0.00506800       0.16792300       0.04248000         13
13
pbc=[T, T, T] config_type=high_entropy dft_energy=-23.71001228 Lattice="11.12811800 0.00000000 0.00000000 0.36607700 4.18545500 0.00000000 1.69004800 2.03009000 3.53606200" Properties=species:S:1:pos:R:3:velocities:R:3:dft_forces:R:3:Z:I:1
Al         8.18829967       0.59777697       1.88532504         0.00000000       0.00000000       0.00000000         3.74871500      -1.53245600       2.75007300         13
Al         2.08523349       6.03414375       2.02381022         0.00000000       0.00000000       0.00000000         1.27910700       3.80864000      -1.17232500         13
Al        10.79833335       1.40652091       2.63453525         0.00000000       0.00000000       0.00000000        -1.72436500      -5.18704800       1.38551700         13
Al         8.04182971       2.71358228       1.37017560         0.00000000       0.00000000       0.00000000        -1.40688600      -1.23301200      -5.20085600         13
Al         4.27372584       2.68646869       2.87257170         0.00000000       0.00000000       0.00000000        -6.07330200       1.14496100      -3.18024500         13
Al        10.29962123       2.94480784       1.15565371         0.00000000       0.00000000       0.00000000        -1.43094000       3.66843100       4.88871400         13
Al         0.85757544       2.47642965       0.00310765         0.00000000       0.00000000       0.00000000         1.08663500      -2.48960800      -3.01256200         13
Al         3.65281145       1.03996241       1.28631156         0.00000000       0.00000000       0.00000000         1.90353300      -2.74030900       0.40546100         13
Al         6.77503055       6.61738800       2.81135843         0.00000000       0.00000000       0.00000000         2.24475600      -0.77399000       2.97715000         13
Al         6.35965860       4.58461168       1.90060256         0.00000000       0.00000000       0.00000000        -2.01575000      -1.07493900      -2.80132100         13
Al        10.20132824       0.85600691       0.48044084         0.00000000       0.00000000       0.00000000         0.53161400       0.85914100      -2.67983000         13
Al         8.78675988       2.16393680       3.41709275         0.00000000       0.00000000       0.00000000        -0.24306000       3.76584800       0.09655300         13
Al         4.74671728       4.75234413       3.36599023         0.00000000       0.00000000       0.00000000         2.09994300       1.78434000       5.54367200         13
2
pbc=[T, T, T] config_type=high_entropy dft_energy=-5.65444426 Lattice="5.48773800 0.00000000 0.00000000 1.51204400 4.79893000 0.00000000 0.63309700 0.70422700 2.13017900" Properties=species:S:1:pos:R:3:velocities:R:3:dft_forces:R:3:Z:I:1
Al         0.23071866       0.06975206       2.39264198         0.00000000       0.00000000       0.00000000         0.49442800       0.10960000       0.01614500         13
Al         2.46829489       1.24512161       0.24315494         0.00000000       0.00000000       0.00000000        -0.49442800      -0.10960000      -0.01614500         13
2
pbc=[T, T, T] config_type=high_entropy dft_energy=-3.64071244 Lattice="6.59855700 0.00000000 0.00000000 1.84920300 5.09651500 0.00000000 0.45953200 0.30138900 2.02384900" Properties=species:S:1:pos:R:3:velocities:R:3:dft_forces:R:3:Z:I:1
Al         4.76350130       2.15167821       0.83452653         0.00000000       0.00000000       0.00000000         0.43018300      -0.10979600      -0.09556500         13
Al         7.72275810       3.85989349       0.38602812         0.00000000       0.00000000       0.00000000        -0.43018300       0.10979600       0.09556500         13
2
pbc=[T, T, T] config_type=high_entropy dft_energy=-5.65815724 Lattice="3.23844600 0.00000000 0.00000000 0.68743200 2.59125800 0.00000000 0.01092200 1.20309200 3.21595900" Properties=species:S:1:pos:R:3:velocities:R:3:dft_forces:R:3:Z:I:1
Al         1.31692238       0.91634358       1.43293794         0.00000000       0.00000000       0.00000000        -0.32154100       0.09140800      -0.27899700         13
Al         0.33722621       2.67860052      -0.11623965         0.00000000       0.00000000       0.00000000         0.32154100      -0.09140800       0.27899700         13
23
pbc=[T, T, T] config_type=high_entropy dft_energy=-70.38084988 Lattice="14.22477800 0.00000000 0.00000000 1.99599200 3.81795700 0.00000000 1.39091900 -0.55609700 5.71429300" Properties=species:S:1:pos:R:3:velocities:R:3:dft_forces:R:3:Z:I:1
Al        11.71418857       2.58608198       1.82569081         0.00000000       0.00000000       0.00000000         0.14522200      -0.45651300       0.14680800         13
Al         4.95419504      -0.08846153       0.82637280         0.00000000       0.00000000       0.00000000        -0.08021500      -0.12752500       0.05835100         13
Al        14.56981405       2.09367110       5.30229211         0.00000000       0.00000000       0.00000000         0.26323300      -0.22800800       0.07819200         13
Al         5.68475619       3.17700525       2.85892274         0.00000000       0.00000000       0.00000000        -0.62294600       0.71144800       1.99029400         13
Al         7.99331446       1.93804961       2.12784095         0.00000000       0.00000000       0.00000000         1.28304900      -0.57073500       1.23334100         13
Al        10.12404090       1.08057234       3.03607740         0.00000000       0.00000000       0.00000000         0.32584800       0.46085600       0.80612500         13
Al         7.41298268       2.48548242       4.44938521         0.00000000       0.00000000       0.00000000        -0.61375800      -0.39877000      -0.73915300         13
Al        12.97197819       0.49550306       4.19080657         0.00000000       0.00000000       0.00000000         0.97432600      -0.42495700      -1.13740000         13
Al        14.03756094       1.08327761       1.39099636         0.00000000       0.00000000       0.00000000         0.17633300      -0.71904800       0.58187400         13
Al        11.61491962       0.37674686       6.29727874         0.00000000       0.00000000       0.00000000        -0.50589900       0.62264900      -0.58410000         13
Al         1.75738503       1.35626907       3.38147633         0.00000000       0.00000000       0.00000000        -0.82765700       0.28765300      -0.68662800         13
Al         3.83507002       1.69149141      -0.48954477         0.00000000       0.00000000       0.00000000        -0.86002800       0.45159400      -1.52796900         13
Al         3.84249608       1.71399085       2.05526879         0.00000000       0.00000000       0.00000000        -1.00185200       0.73443500       0.91062600         13
Al         8.13251881       1.89105232      -0.34447412         0.00000000       0.00000000       0.00000000         0.98584800      -0.07752100      -0.78526900         13
Al         9.44805273       3.62710057       0.96907442         0.00000000       0.00000000       0.00000000         1.93314700      -1.16008300       0.76851500         13
Al         5.95088018       1.81138950       0.81207324         0.00000000       0.00000000       0.00000000        -0.05102200       0.27449400      -0.18220100         13
Al         5.99005337       0.59978371       2.91612648         0.00000000       0.00000000       0.00000000         0.13376900       0.01482200       1.01649100         13
Al         3.61158184       2.86769905       4.27701277         0.00000000       0.00000000       0.00000000        -0.77242100       0.88660200       0.74108300         13
Al        12.02331222       2.80699566       4.43700729         0.00000000       0.00000000       0.00000000         0.98762700      -0.91000000      -0.02814000         13
Al         7.68519619      -0.12747185       4.53386102         0.00000000       0.00000000       0.00000000         0.38128400      -0.22774200      -2.55754600         13
Al         1.78027806       2.45709206       0.79766493         0.00000000       0.00000000       0.00000000        -0.39849800       0.26590000      -0.11611900         13
Al         4.43518071       3.81006546       0.73867859         0.00000000       0.00000000       0.00000000        -2.29191100       0.72682200      -0.40460300         13
Al        12.02019255      -0.27219771       2.00231175         0.00000000       0.00000000       0.00000000         0.43652000      -0.13637400       0.41742700         13
3
pbc=[T, T, T] config_type=high_entropy dft_energy=-10.07205167 Lattice="4.70498500 0.00000000 0.00000000 0.19953500 4.03602100 0.00000000 0.34397800 0.79660700 3.10654500" Properties=species:S:1:pos:R:3:velocities:R:3:dft_forces:R:3:Z:I:1
Al         2.75375562       2.72159632       0.29852516         0.00000000       0.00000000       0.00000000        -0.05384900       0.18956300       0.08421500         13
Al         3.94863834       1.39493584       2.11714823         0.00000000       0.00000000       0.00000000        -0.19893800      -0.12004400       0.04646300         13
Al         1.07796773       0.77521678       0.40135580         0.00000000       0.00000000       0.00000000         0.25278700      -0.06951900      -0.13067700         13
5
pbc=[T, T, T] config_type=high_entropy dft_energy=-15.94790525 Lattice="9.78186700 0.00000000 0.00000000 0.66376900 3.59892400 0.00000000 0.67159100 0.55782200 3.69204400" Properties=species:S:1:pos:R:3:velocities:R:3:dft_forces:R:3:Z:I:1
Al         0.38157226       0.79042197       1.10757103         0.00000000       0.00000000       0.00000000         0.02591100      -0.02663900      -0.01078700         13
Al         4.06275624       0.12354791       0.50569905         0.00000000       0.00000000       0.00000000        -0.01372700      -0.01432200       0.00052500         13
Al         6.60171927       2.00349917       2.17030400         0.00000000       0.00000000       0.00000000        -0.00468600       0.03650200       0.03039300         13
Al        -0.71648539       3.45054716       3.46799300         0.00000000       0.00000000       0.00000000        -0.00595800       0.00129000      -0.00539500         13
Al         2.86895059       2.48421672       2.62515610         0.00000000       0.00000000       0.00000000        -0.00154000       0.00316800      -0.01473700         13
3
pbc=[T, T, T] config_type=high_entropy dft_energy=-10.27092061 Lattice="5.22289400 0.00000000 0.00000000 2.28188600 4.83988900 0.00000000 0.01618100 1.00104000 2.27129000" Properties=species:S:1:pos:R:3:velocities:R:3:dft_forces:R:3:Z:I:1
Al         5.40374461       1.25867499       1.88412900         0.00000000       0.00000000       0.00000000        -0.02784100       0.04946100       0.03574100         13
Al         2.65077634       1.91850315       0.17747275         0.00000000       0.00000000       0.00000000        -0.00920700       0.03321600      -0.06403900         13
Al         5.06648554       3.71808285       0.18065688         0.00000000       0.00000000       0.00000000         0.03704800      -0.08267700       0.02829800         13
2
pbc=[T, T, T] config_type=high_entropy dft_energy=-5.95533704 Lattice="7.45766800 0.00000000 0.00000000 0.46975600 2.31420000 0.00000000 0.49275700 0.03105800 2.80710200" Properties=species:S:1:pos:R:3:velocities:R:3:dft_forces:R:3:Z:I:1
Al         5.13056724       2.07014814       0.73619592         0.00000000       0.00000000       0.00000000         0.45468800      -0.06505700      -0.08881800         13
Al         7.99170260       0.93551718       1.57743850         0.00000000       0.00000000       0.00000000        -0.45468800       0.06505700       0.08881800         13
5
pbc=[T, T, T] config_type=high_entropy dft_energy=-17.78407908 Lattice="8.85726900 0.00000000 0.00000000 0.40203800 3.45318600 0.00000000 0.28701400 0.30594800 3.22755500" Properties=species:S:1:pos:R:3:velocities:R:3:dft_forces:R:3:Z:I:1
Al         2.32822062      -0.18082391       2.24896925         0.00000000       0.00000000       0.00000000        -0.01347800      -0.00408700       0.00395000         13
Al         9.81853342       2.08218578       4.18974619         0.00000000       0.00000000       0.00000000         0.01252700       0.00173500      -0.00045400         13
Al         6.12743934       2.54228033       1.60917860         0.00000000       0.00000000       0.00000000        -0.00383100      -0.02902200       0.01268000         13
Al         4.08418089       1.01642886       0.31963205         0.00000000       0.00000000       0.00000000         0.00372200       0.02554000      -0.01673400         13
Al         7.77268770       0.58266615       2.89730180         0.00000000       0.00000000       0.00000000         0.00106000       0.00583400       0.00055800         13
2
pbc=[T, T, T] config_type=high_entropy dft_energy=4.75489192 Lattice="5.60672800 0.00000000 0.00000000 2.69060600 4.94529800 0.00000000 0.29939400 0.61133700 1.58300400" Properties=species:S:1:pos:R:3:velocities:R:3:dft_forces:R:3:Z:I:1
Al         3.27030570       0.67721342       0.60074723         0.00000000       0.00000000       0.00000000        -0.00906700       0.00518900      -0.00263100         13
Al         3.13019446       4.18287758       1.02321961         0.00000000       0.00000000       0.00000000         0.00906700      -0.00518900       0.00263100         13
3
pbc=[T, T, T] config_type=high_entropy dft_energy=-8.65141296 Lattice="10.75296400 0.00000000 0.00000000 1.93021000 4.09061300 0.00000000 1.17973700 0.12903500 2.06103200" Properties=species:S:1:pos:R:3:velocities:R:3:dft_forces:R:3:Z:I:1
Al         3.90354989      -0.01226961      -0.43118744         0.00000000       0.00000000       0.00000000        -0.35521600      -0.02465300       0.21483400         13
Al         0.55967627       2.36205590       1.39335272         0.00000000       0.00000000       0.00000000         0.33727700      -0.14076800      -0.19036800         13
Al         2.82600805       3.78969102      -0.05443672         0.00000000       0.00000000       0.00000000         0.01793900       0.16542100      -0.02446700         13
3
pbc=[T, T, T] config_type=high_entropy dft_energy=-7.42562773 Lattice="7.60959100 0.00000000 0.00000000 0.57057200 3.00870400 0.00000000 0.59075600 0.26735300 2.00020400" Properties=species:S:1:pos:R:3:velocities:R:3:dft_forces:R:3:Z:I:1
Al         3.31535143       0.49341785      -0.26447817         0.00000000       0.00000000       0.00000000        -0.00213500       0.00209100      -0.00226200         13
Al         1.17835912      -0.23923813       1.73133240         0.00000000       0.00000000       0.00000000         0.00367700      -0.00331700       0.00176800         13
Al         6.63257744       1.76361164       1.73218545         0.00000000       0.00000000       0.00000000        -0.00154200       0.00122600       0.00049500         13
3
pbc=[T, T, T] config_type=high_entropy dft_energy=-8.88865744 Lattice="10.79448500 0.00000000 0.00000000 0.60326200 2.33413300 0.00000000 0.93949900 -0.84314600 2.93292000" Properties=species:S:1:pos:R:3:velocities:R:3:dft_forces:R:3:Z:I:1
Al        12.17214832       0.18731712       0.74888219         0.00000000       0.00000000       0.00000000         1.87757800      -1.11138200      -2.06190500         13
Al        10.45403966       2.12532923      -0.32785249         0.00000000       0.00000000       0.00000000        -1.57462600       0.75589900       1.53106300         13
Al         9.08006469       3.17182257       1.55870214         0.00000000       0.00000000       0.00000000        -0.30295200       0.35548300       0.53084200         13
2
pbc=[T, T, T] config_type=high_entropy dft_energy=-5.71942276 Lattice="5.05021400 0.00000000 0.00000000 1.23572000 3.65540400 0.00000000 0.58359300 1.61595200 3.46518000" Properties=species:S:1:pos:R:3:velocities:R:3:dft_forces:R:3:Z:I:1
Al         3.68509477       2.05095462       0.35530127         0.00000000       0.00000000       0.00000000         0.03488300       0.02243100       0.00344600         13
Al         6.81752731       3.88564173       1.98314400         0.00000000       0.00000000       0.00000000        -0.03488300      -0.02243100      -0.00344600         13
2
pbc=[T, T, T] config_type=high_entropy dft_energy=4.32138927 Lattice="5.27877000 0.00000000 0.00000000 2.55008100 4.57647000 0.00000000 0.66353500 -0.28635800 1.56703100" Properties=species:S:1:pos:R:3:velocities:R:3:dft_forces:R:3:Z:I:1
Al         5.38653779       4.34566288       0.18170120         0.00000000       0.00000000       0.00000000         0.02658200      -0.03514500      -0.01316300         13
Al         3.38861924       2.48398862       1.42402332         0.00000000       0.00000000       0.00000000        -0.02658200       0.03514500       0.01316300         13
3
pbc=[T, T, T] config_type=high_entropy dft_energy=-8.12337017 Lattice="6.92959600 0.00000000 0.00000000 0.67167900 5.72039000 0.00000000 0.77984300 0.91182100 2.87996100" Properties=species:S:1:pos:R:3:velocities:R:3:dft_forces:R:3:Z:I:1
Al         5.33801893       3.14960015      -0.17188266         0.00000000       0.00000000       0.00000000         0.19504600      -0.11104400      -0.00154400         13
Al         2.71720831       3.60888326       2.03195193         0.00000000       0.00000000       0.00000000        -0.19035500       0.03318200       0.04298800         13
Al         7.36198606       0.94208531       1.81123177         0.00000000       0.00000000       0.00000000        -0.00469000       0.07786200      -0.04144400         13
3
pbc=[T, T, T] config_type=high_entropy dft_energy=-9.42959537 Lattice="12.67812100 0.00000000 0.00000000 1.26005000 2.40182700 0.00000000 0.83362200 1.10839600 2.98509900" Properties=species:S:1:pos:R:3:velocities:R:3:dft_forces:R:3:Z:I:1
Al         9.01132126      -0.11895732       0.36113271         0.00000000       0.00000000       0.00000000        -0.52186900       0.27745200       0.02806200         13
Al         4.63483512       3.90606104       1.30787434         0.00000000       0.00000000       0.00000000         0.52827300      -0.28062200      -0.02964000         13
Al         6.62647332       1.34842157       2.31210068         0.00000000       0.00000000       0.00000000        -0.00640300       0.00317000       0.00157800         13
13
pbc=[T, T, T] config_type=high_entropy dft_energy=-40.84022759 Lattice="6.87103100 0.00000000 0.00000000 1.00663700 5.83517800 0.00000000 1.81581600 1.14184300 4.25983000" Properties=species:S:1:pos:R:3:velocities:R:3:dft_forces:R:3:Z:I:1
Al         1.87205933       1.86855026       1.51701008         0.00000000       0.00000000       0.00000000        -0.11778900      -0.04104000       0.46244500         13
Al         4.40230617       1.98006866       1.39261183         0.00000000       0.00000000       0.00000000        -0.11534000       0.30480000      -0.02814500         13
Al         4.32992750       4.32389059       0.75755380         0.00000000       0.00000000       0.00000000         0.00557900      -0.12963300      -0.13823800         13
Al         4.68616754      -0.22039453       2.15889158         0.00000000       0.00000000       0.00000000         0.10783700       0.19324300       0.22549200         13
Al         7.66635878       4.87473522       3.21772344         0.00000000       0.00000000       0.00000000        -0.12104200       0.10498200       0.10199500         13
Al         3.91801951       1.39235391       3.88091422         0.00000000       0.00000000       0.00000000        -0.25337900       0.10166400       0.14891900         13
Al         2.19339051      -0.19825083       2.76746271         0.00000000       0.00000000       0.00000000        -0.32097800       0.32429400      -0.00475400         13
Al         6.57590991       3.25849504       1.43883070         0.00000000       0.00000000       0.00000000        -0.07006400       0.11000400      -0.10427200         13
Al         6.63594449       0.63854738       0.96947137         0.00000000       0.00000000       0.00000000         0.07681800      -0.37973600      -0.35181700         13
Al         1.92368781       4.24914259       0.97368276         0.00000000       0.00000000       0.00000000        -0.23253100      -0.07379700      -0.18163600         13
Al         6.54645706       1.60183679       3.46716105         0.00000000       0.00000000       0.00000000         0.45675600      -0.12612900       0.12672900         13
Al         2.48054512       3.31150688       3.45808525         0.00000000       0.00000000       0.00000000         0.40565700      -0.32635700      -0.13498500         13
Al         4.97348445       3.68389555       3.49538978         0.00000000       0.00000000       0.00000000         0.17847600      -0.06229500      -0.12173300         13
18
pbc=[T, T, T] config_type=high_entropy dft_energy=-52.66773072 Lattice="8.02356700 0.00000000 0.00000000 0.49763600 8.37660400 0.00000000 0.92304100 0.77412800 8.09314900" Properties=species:S:1:pos:R:3:velocities:R:3:dft_forces:R:3:Z:I:1
Al         4.53108078       2.39424011       4.52164426         0.00000000       0.00000000       0.00000000         0.05559300      -0.01050400      -0.08483300         13
Al         9.81400848       5.31960973       4.67764947         0.00000000       0.00000000       0.00000000        -0.07845400       0.05980900       0.02189000         13
Al         5.21629225       2.95664192       7.76667319         0.00000000       0.00000000       0.00000000         0.02129400       0.00863900      -0.00703200         13
Al         7.50213170       5.30811172       7.26732411         0.00000000       0.00000000       0.00000000         0.02457500       0.00642200      -0.00318500         13
Al         6.72580013       2.12110071       1.92219144         0.00000000       0.00000000       0.00000000        -0.00513000       0.01956600       0.00666900         13
Al         1.80625883       7.78485641       1.99423355         0.00000000       0.00000000       0.00000000        -0.01887700       0.01012500      -0.00128900         13
Al         4.36139562       4.81730401       1.80995267         0.00000000       0.00000000       0.00000000         0.05807600      -0.03144700      -0.03197300         13
Al         9.96899818       2.64062142       7.52497468         0.00000000       0.00000000       0.00000000        -0.06009200      -0.01524300       0.09769100         13
Al         7.38580351       7.75430222      -0.20442995         0.00000000       0.00000000       0.00000000         0.00205500      -0.03669300       0.03583600         13
Al         1.76400196       5.14139658      -0.22892139         0.00000000       0.00000000       0.00000000        -0.04443100       0.02794100       0.03610600         13
Al         7.04066362      -0.52401631       4.67105355         0.00000000       0.00000000       0.00000000         0.04716400      -0.06523400       0.00910700         13
Al         2.17961020       0.16749011       5.19454752         0.00000000       0.00000000       0.00000000        -0.02125000       0.01655200      -0.02153800         13
Al         7.53654586       5.38991271       2.28935573         0.00000000       0.00000000       0.00000000         0.01221100       0.03983200      -0.07380400         13
Al         7.74485949       2.73534430       5.09986438         0.00000000       0.00000000       0.00000000         0.03950700      -0.02835700      -0.02514300         13
Al         5.04217344       8.02815367       2.49013874         0.00000000       0.00000000       0.00000000         0.04149600      -0.04931200       0.01124300         13
Al         1.92078937       2.69691012       2.52747315         0.00000000       0.00000000       0.00000000        -0.07209200       0.04811000       0.01885700         13
Al         5.06329596       5.65984667       5.00280708         0.00000000       0.00000000       0.00000000        -0.01520700       0.06471400      -0.03046300         13
Al         4.19502166       7.29967729      -0.71745892         0.00000000       0.00000000       0.00000000         0.01356200      -0.06492000       0.04186100         13
2
pbc=[T, T, T] config_type=high_entropy dft_energy=-2.14484819 Lattice="4.00208200 0.00000000 0.00000000 1.29150100 2.45317700 0.00000000 0.63897700 -0.32254500 3.11109300" Properties=species:S:1:pos:R:3:velocities:R:3:dft_forces:R:3:Z:I:1
Al         4.04054236       0.68747449       1.77390518         0.00000000       0.00000000       0.00000000        -0.10408100       0.03676900       0.09495800         13
Al         5.01585014       1.74697465       3.32848721         0.00000000       0.00000000       0.00000000         0.10408100      -0.03676900      -0.09495800         13
6
pbc=[T, T, T] config_type=high_entropy dft_energy=-14.28511604 Lattice="7.21582400 0.00000000 0.00000000 2.09000500 5.77069000 0.00000000 3.12542100 1.95756700 5.91787700" Properties=species:S:1:pos:R:3:velocities:R:3:dft_forces:R:3:Z:I:1
Al         8.66160747       1.06775394       3.08383100         0.00000000       0.00000000       0.00000000        -0.07637500       0.01307000       0.03401800         13
Al         9.10481171       4.26683183       0.73585779         0.00000000       0.00000000       0.00000000        -0.23714000       0.10771100      -0.21578200         13
Al        10.34548028       3.73623015       5.46004111         0.00000000       0.00000000       0.00000000         0.17607100      -0.05678800       0.20457900         13
Al         7.26046330       7.12821657       2.59250281         0.00000000       0.00000000       0.00000000         0.07813300      -0.25080400       0.03764300         13
Al         5.69409357       5.60958399       0.10832995         0.00000000       0.00000000       0.00000000         0.18105600       0.26244500      -0.08676300         13
Al         6.37157536       4.20756391       3.84286745         0.00000000       0.00000000       0.00000000        -0.12174500      -0.07563500       0.02630600         13
3
pbc=[T, T, T] config_type=high_entropy dft_energy=-5.12639155 Lattice="5.31758100 0.00000000 0.00000000 2.37122500 4.91218500 0.00000000 0.04277800 0.95314800 1.74540700" Properties=species:S:1:pos:R:3:velocities:R:3:dft_forces:R:3:Z:I:1
Al         4.24427213       4.19460506       1.90155531         0.00000000       0.00000000       0.00000000        -0.00138300      -0.00013400       0.00003100         13
Al         4.40642124       0.28335922       0.73756536         0.00000000       0.00000000       0.00000000         0.00141700       0.00169400      -0.00095900         13
Al         1.66626163       2.24034538       1.31930767         0.00000000       0.00000000       0.00000000        -0.00003400      -0.00156000       0.00092800         13
3
pbc=[T, T, T] config_type=high_entropy dft_energy=-7.87755035 Lattice="9.27769100 0.00000000 0.00000000 0.02276500 2.19578900 0.00000000 1.19094400 -0.94122200 3.38817800" Properties=species:S:1:pos:R:3:velocities:R:3:dft_forces:R:3:Z:I:1
Al         1.86470737       2.49506375       2.52379588         0.00000000       0.00000000       0.00000000        -0.02068300      -0.01714000      -0.06565200         13
Al         8.11450703       1.65450285       1.79139193         0.00000000       0.00000000       0.00000000         0.09663400       0.02591000       0.04248900         13
Al         3.76374519       1.84872135      -0.17996863         0.00000000       0.00000000       0.00000000        -0.07595100      -0.00877000       0.02316300         13
2
pbc=[T, T, T] config_type=high_entropy dft_energy=-4.65059282 Lattice="6.38033600 0.00000000 0.00000000 2.44908800 6.55610000 0.00000000 0.90290500 0.10388300 2.01419800" Properties=species:S:1:pos:R:3:velocities:R:3:dft_forces:R:3:Z:I:1
Al         1.21080232       1.30137612       0.89701971         0.00000000       0.00000000       0.00000000        -0.05330600      -0.29046000       0.00273100         13
Al         4.43295127      -0.03899361       0.90174362         0.00000000       0.00000000       0.00000000         0.05330600       0.29046000      -0.00273100         13
3
pbc=[T, T, T] config_type=high_entropy dft_energy=-8.99475976 Lattice="6.64084200 0.00000000 0.00000000 2.62124100 4.98500500 0.00000000 0.79835500 -0.02982600 2.62015700" Properties=species:S:1:pos:R:3:velocities:R:3:dft_forces:R:3:Z:I:1
Al         3.21839275       3.61254179       0.61678684         0.00000000       0.00000000       0.00000000        -0.07863100       0.01731000       0.02952100         13
Al         6.56187971       5.25296023       1.04271928         0.00000000       0.00000000       0.00000000         0.01953800       0.00769700      -0.01440400         13
Al         7.47668245       1.87939540       2.34809823         0.00000000       0.00000000       0.00000000         0.05909200      -0.02500700      -0.01511700         13
2
pbc=[T, T, T] config_type=high_entropy dft_energy=-3.14747912 Lattice="4.83069800 0.00000000 0.00000000 0.56169700 3.85218800 0.00000000 0.77095100 0.85006000 1.62942700" Properties=species:S:1:pos:R:3:velocities:R:3:dft_forces:R:3:Z:I:1
Al         0.01314913       1.62808628       2.11276242         0.00000000       0.00000000       0.00000000         0.36266300       0.06836000       0.27698000         13
Al         1.93958004       2.54943680       0.37869113         0.00000000       0.00000000       0.00000000        -0.36266300      -0.06836000      -0.27698000         13
10
pbc=[T, T, T] config_type=high_entropy dft_energy=-24.21176721 Lattice="5.28646800 0.00000000 0.00000000 2.62936300 4.89968200 0.00000000 1.95968400 1.28248200 4.53225000" Properties=species:S:1:pos:R:3:velocities:R:3:dft_forces:R:3:Z:I:1
Al         4.43366127       1.86675425       2.51318489         0.00000000       0.00000000       0.00000000         0.48249000      -0.09556400      -0.25298500         13
Al         8.50544915       6.68452548       4.35514266         0.00000000       0.00000000       0.00000000         0.29939100       0.42234300       0.03635800         13
Al         2.64278215      -0.60747459       1.59858683         0.00000000       0.00000000       0.00000000        -0.52746400       0.43309800       0.18390900         13
Al         3.37983631       1.81666552       4.50799706         0.00000000       0.00000000       0.00000000        -0.13084700      -0.96605100      -0.18021600         13
Al         5.87893465       2.34668312       0.82714676         0.00000000       0.00000000       0.00000000        -0.25867500       0.10938200      -0.08346600         13
Al         3.76267041       4.13869318       3.41669783         0.00000000       0.00000000       0.00000000         0.12892800       0.16842300       0.20095200         13
Al         7.77506016       4.62589994       1.57176865         0.00000000       0.00000000       0.00000000         0.09285900      -0.24715600       0.00915300         13
Al         8.39375683       2.53355798       0.75895012         0.00000000       0.00000000       0.00000000         0.34353400       0.26278400       0.17524900         13
Al         4.59869936       6.35386846       2.55838803         0.00000000       0.00000000       0.00000000        -0.11640800       0.52150200      -0.16305000         13
Al         6.55576085       4.53689760       3.59041246         0.00000000       0.00000000       0.00000000        -0.31380800      -0.60876100       0.07409600         13
4
pbc=[T, T, T] config_type=high_entropy dft_energy=-11.26987645 Lattice="8.24205300 0.00000000 0.00000000 3.98008300 7.39813900 0.00000000 0.89326300 0.26126700 2.33164700" Properties=species:S:1:pos:R:3:velocities:R:3:dft_forces:R:3:Z:I:1
Al         4.05158189       6.60152993       1.35454346         0.00000000       0.00000000       0.00000000         0.10015700      -0.51369200       0.00853500         13
Al         4.55920952       2.55520751       1.70380496         0.00000000       0.00000000       0.00000000        -0.43065700       0.12847500       0.13748900         13
Al         7.23729925       6.23743887       0.89089522         0.00000000       0.00000000       0.00000000        -0.05491700       0.08737500       0.05168100         13
Al         1.72047784       4.39868593       1.32574376         0.00000000       0.00000000       0.00000000         0.38541700       0.29784200      -0.19770500         13
2
pbc=[T, T, T] config_type=high_entropy dft_energy=-5.64504033 Lattice="5.65645000 0.00000000 0.00000000 1.33878100 4.95996500 0.00000000 1.20224800 -0.06729100 2.47981200" Properties=species:S:1:pos:R:3:velocities:R:3:dft_forces:R:3:Z:I:1
Al         4.30855429       4.67230406       0.17053006         0.00000000       0.00000000       0.00000000        -0.18543800      -0.17312600       0.08573300         13
Al         2.51892904       2.54195906       2.45048118         0.00000000       0.00000000       0.00000000         0.18543800       0.17312600      -0.08573300         13
2
pbc=[T, T, T] config_type=high_entropy dft_energy=-5.15328297 Lattice="7.64809400 0.00000000 0.00000000 0.20160100 3.23202300 0.00000000 0.39024000 0.53941800 3.23400800" Properties=species:S:1:pos:R:3:velocities:R:3:dft_forces:R:3:Z:I:1
Al         0.26881207       3.66066572       3.61273015         0.00000000       0.00000000       0.00000000        -0.50316400       0.04338300       0.05385500         13
Al         4.38673512       1.56568907       0.42940402         0.00000000       0.00000000       0.00000000         0.50316400      -0.04338300      -0.05385500         13
2
pbc=[T, T, T] config_type=high_entropy dft_energy=-4.45238817 Lattice="6.07395100 0.00000000 0.00000000 0.07467300 6.28426500 0.00000000 0.12135700 1.05782000 1.98425600" Properties=species:S:1:pos:R:3:velocities:R:3:dft_forces:R:3:Z:I:1
Al        -0.43507861       3.78871992       0.74664023         0.00000000       0.00000000       0.00000000         0.27202200       0.16869800      -0.07902300         13
Al         2.34797385       6.87252447       1.27520602         0.00000000       0.00000000       0.00000000        -0.27202200      -0.16869800       0.07902300         13
2
pbc=[T, T, T] config_type=high_entropy dft_energy=-6.87192944 Lattice="2.95633400 0.00000000 0.00000000 0.31505200 5.27543400 0.00000000 1.18891800 1.03758600 2.73162700" Properties=species:S:1:pos:R:3:velocities:R:3:dft_forces:R:3:Z:I:1
Al         2.29948353       1.27295233      -0.01118574         0.00000000       0.00000000       0.00000000        -0.07046000       0.90149400      -0.34431100         13
Al         2.19559704       5.27677565       2.32808748         0.00000000       0.00000000       0.00000000         0.07046000      -0.90149400       0.34431100         13
5
pbc=[T, T, T] config_type=high_entropy dft_energy=-11.96541099 Lattice="12.74032800 0.00000000 0.00000000 0.66576100 4.46164300 0.00000000 2.36317000 1.99991100 3.65506400" Properties=species:S:1:pos:R:3:velocities:R:3:dft_forces:R:3:Z:I:1
Al         6.66239496       4.51202032       0.55346600         0.00000000       0.00000000       0.00000000         0.04831600      -0.00627100      -0.00027200         13
Al         2.13106623       3.03517491       1.91519308         0.00000000       0.00000000       0.00000000        -0.05053000       0.00741000       0.00119000         13
Al         5.25080841       2.54085200       3.05861313         0.00000000       0.00000000       0.00000000         0.00330000      -0.00072800      -0.00269200         13
Al         8.87404975       1.78923662       0.66773553         0.00000000       0.00000000       0.00000000        -0.00371900       0.00591200      -0.02732000         13
Al        12.66423205       5.75382183       1.80592373         0.00000000       0.00000000       0.00000000         0.00263300      -0.00632300       0.02909500         13
4
pbc=[T, T, T] config_type=high_entropy dft_energy=-13.15311860 Lattice="7.10316200 0.00000000 0.00000000 2.75514700 5.68859300 0.00000000 1.00623400 0.49746200 2.30940100" Properties=species:S:1:pos:R:3:velocities:R:3:dft_forces:R:3:Z:I:1
Al         4.37967154       4.09099379       0.52344217         0.00000000       0.00000000       0.00000000        -0.00189300       0.02982100      -0.05580400         13
Al         9.25044358       6.54106362       0.36550393         0.00000000       0.00000000       0.00000000         0.14089400      -0.05728800      -0.03285600         13
Al         7.56212171       3.84825963       0.51953445         0.00000000       0.00000000       0.00000000        -0.03374300      -0.03456600       0.01983800         13
Al         3.69673656       1.86340914       2.65661466         0.00000000       0.00000000       0.00000000        -0.10525800       0.06203200       0.06882100         13
10
pbc=[T, T, T] config_type=high_entropy dft_energy=-34.91964856 Lattice="6.90540800 0.00000000 0.00000000 2.92695000 5.46347800 0.00000000 2.29989500 -0.54983200 5.66151600" Properties=species:S:1:pos:R:3:velocities:R:3:dft_forces:R:3:Z:I:1
Al         6.05551755       4.62314988       4.63353842         0.00000000       0.00000000       0.00000000         0.01047800       0.00014500       0.01189000         13
Al         6.30295334       5.17240452       0.19373207         0.00000000       0.00000000       0.00000000        -0.09752700       0.40081500      -0.29134900         13
Al         6.05767009       3.18898924       2.07364843         0.00000000       0.00000000       0.00000000        -0.19800800      -0.01553300       0.32194200         13
Al         3.44971138       2.16459612       1.80948303         0.00000000       0.00000000       0.00000000        -0.00623700      -0.02643500       0.00575200         13
Al         2.39503538       1.71335856       4.32127350         0.00000000       0.00000000       0.00000000         0.36662800       0.18891400      -0.00151400         13
Al         7.73900497       1.14135938       1.54560607         0.00000000       0.00000000       0.00000000         0.21254200       0.02654100      -0.33569700         13
Al        10.42522844       4.61448539       3.41070496         0.00000000       0.00000000       0.00000000         0.09680400      -0.40933700       0.29790500         13
Al         6.80043176       2.07397647       4.96335318         0.00000000       0.00000000       0.00000000        -0.36523900      -0.18250200      -0.00119700         13
Al        11.06933913       3.44493406       6.27958491         0.00000000       0.00000000       0.00000000        -0.15386200       0.07203700       0.02589900         13
Al         5.03800511       0.33065487       3.00444978         0.00000000       0.00000000       0.00000000         0.13442100      -0.05464700      -0.03363000         13
4
pbc=[T, T, T] config_type=high_entropy dft_energy=-13.46527871 Lattice="6.10035400 0.00000000 0.00000000 0.15414900 5.72940600 0.00000000 0.08555200 0.62551400 2.61941100" Properties=species:S:1:pos:R:3:velocities:R:3:dft_forces:R:3:Z:I:1
Al         2.57518901       1.38507887       1.32623889         0.00000000       0.00000000       0.00000000        -0.01071400       0.01483000      -0.00243800         13
Al         4.01269121       4.22040609       1.77354915         0.00000000       0.00000000       0.00000000        -0.02749600      -0.03479700       0.01018000         13
Al         5.62881614       1.27416317       0.51464096         0.00000000       0.00000000       0.00000000         0.03596600       0.02026000      -0.01239300         13
Al         0.99774217       4.10325014       0.59333724         0.00000000       0.00000000       0.00000000         0.00224400      -0.00029300       0.00465000         13
5
pbc=[T, T, T] config_type=high_entropy dft_energy=-15.76250577 Lattice="7.18715000 0.00000000 0.00000000 3.31939000 6.90829500 0.00000000 0.23310700 0.23409600 2.82248000" Properties=species:S:1:pos:R:3:velocities:R:3:dft_forces:R:3:Z:I:1
Al         0.42657751      -0.15571003       0.75785245         0.00000000       0.00000000       0.00000000         0.05332600       0.05368700       0.01229700         13
Al         3.05948500       1.59427899       1.24276746         0.00000000       0.00000000       0.00000000         0.01995000       0.08825500      -0.03458900         13
Al         6.59906012       5.31085610       1.22846121         0.00000000       0.00000000       0.00000000         0.05432100      -0.14271700       0.01592000         13
Al         6.00895997       2.33952476       2.25402168         0.00000000       0.00000000       0.00000000        -0.06345300      -0.07592500       0.01855600         13
Al         2.27209885       4.46269916       2.51336524         0.00000000       0.00000000       0.00000000        -0.06414400       0.07669900      -0.01218500         13
5
pbc=[T, T, T] config_type=high_entropy dft_energy=-15.96425785 Lattice="5.49815600 0.00000000 0.00000000 1.22735800 4.98729300 0.00000000 1.22305800 -0.25879400 4.47887600" Properties=species:S:1:pos:R:3:velocities:R:3:dft_forces:R:3:Z:I:1
Al         4.24272144       4.36100640       4.49083805         0.00000000       0.00000000       0.00000000        -0.38827600      -0.26657000       0.04117600         13
Al         6.46633412       1.21512042       1.84026841         0.00000000       0.00000000       0.00000000         0.04989000       0.21045400       0.15945800         13
Al         5.34649405      -0.80695297       3.44080521         0.00000000       0.00000000       0.00000000         1.11364400      -0.31022600      -0.31181600         13
Al         4.19589872       1.94967790      -0.13441523         0.00000000       0.00000000       0.00000000        -0.06285000      -0.32791400       0.31905200         13
Al         4.52641131       2.94375412       2.20546788         0.00000000       0.00000000       0.00000000        -0.71240900       0.69425700      -0.20787100         13
3
pbc=[T, T, T] config_type=high_entropy dft_energy=-7.67546976 Lattice="5.80385100 0.00000000 0.00000000 1.11277200 6.27134300 0.00000000 1.28802100 -0.10904400 3.13638300" Properties=species:S:1:pos:R:3:velocities:R:3:dft_forces:R:3:Z:I:1
Al         2.16320019       4.35375662       0.69226436         0.00000000       0.00000000       0.00000000        -0.00152300      -0.00143000      -0.00009000         13
Al         5.05390326       6.24794243       1.64553218         0.00000000       0.00000000       0.00000000         0.09428500      -0.13430500      -0.04578200         13
Al         6.37167877       2.35653339       2.88181551         0.00000000       0.00000000       0.00000000        -0.09276300       0.13573500       0.04587200         13
2
pbc=[T, T, T] config_type=high_entropy dft_energy=-0.43412521 Lattice="6.24638600 0.00000000 0.00000000 2.30526800 6.13858600 0.00000000 0.80837300 0.54423200 1.62616900" Properties=species:S:1:pos:R:3:velocities:R:3:dft_forces:R:3:Z:I:1
Al         2.60226719       1.17985190       1.00164363         0.00000000       0.00000000       0.00000000         0.07373300       0.05798300      -0.05546800         13
Al         3.69110550       3.94729429       0.39036845         0.00000000       0.00000000       0.00000000        -0.07373300      -0.05798300       0.05546800         13
5
pbc=[T, T, T] config_type=high_entropy dft_energy=-12.82939669 Lattice="7.20343200 0.00000000 0.00000000 1.55988300 7.09226000 0.00000000 1.96015000 0.59643100 3.57782400" Properties=species:S:1:pos:R:3:velocities:R:3:dft_forces:R:3:Z:I:1
Al         5.74812294       7.46804811       0.64521502         0.00000000       0.00000000       0.00000000        -0.17827600       0.01615800       0.01089400         13
Al         4.41517021       3.38993999       2.28277707         0.00000000       0.00000000       0.00000000        -0.05745300      -0.04710000       0.03088400         13
Al         4.48805128       6.51678631       3.73264464         0.00000000       0.00000000       0.00000000         0.08810300       0.05507400      -0.04577500         13
Al         7.92494752       4.96594241       2.93416219         0.00000000       0.00000000       0.00000000        -0.04527400       0.01170600      -0.00050900         13
Al         8.46549323       1.83727196       1.79982444         0.00000000       0.00000000       0.00000000         0.19290000      -0.03583800       0.00450600         13
4
pbc=[T, T, T] config_type=high_entropy dft_energy=-3.28963662 Lattice="6.44039300 0.00000000 0.00000000 1.37608100 6.80256200 0.00000000 0.80264300 -0.12333400 1.73978000" Properties=species:S:1:pos:R:3:velocities:R:3:dft_forces:R:3:Z:I:1
Al         2.36004699       1.85056915       0.09660603         0.00000000       0.00000000       0.00000000         0.43881700       0.15142600      -0.05728400         13
Al         7.69667569       4.33549319       0.89244604         0.00000000       0.00000000       0.00000000        -0.09632400       0.45296400      -0.02478000         13
Al         3.89529166      -0.70916768       0.99436637         0.00000000       0.00000000       0.00000000         0.12304100      -0.41869500      -0.25774200         13
Al         6.90351285       1.97189067       2.01793249         0.00000000       0.00000000       0.00000000        -0.46553300      -0.18569400       0.33980600         13
2
pbc=[T, T, T] config_type=high_entropy dft_energy=-7.02616794 Lattice="3.61268300 0.00000000 0.00000000 0.32968900 2.93263000 0.00000000 0.15819300 1.23885400 3.99850400" Properties=species:S:1:pos:R:3:velocities:R:3:dft_forces:R:3:Z:I:1
Al         1.62756783       1.73889280       2.04713587         0.00000000       0.00000000       0.00000000         0.00585300       0.01850700      -0.05303900         13
Al        -0.33469384       0.23372680       0.23695308         0.00000000       0.00000000       0.00000000        -0.00585300      -0.01850700       0.05303900         13
7
pbc=[T, T, T] config_type=high_entropy dft_energy=-19.71160660 Lattice="7.41095400 0.00000000 0.00000000 0.50774600 5.08112000 0.00000000 2.22853300 -0.06290200 6.18378700" Properties=species:S:1:pos:R:3:velocities:R:3:dft_forces:R:3:Z:I:1
Al         9.96452397       1.03760451       1.91796666         0.00000000       0.00000000       0.00000000        -0.00227800      -0.10844800       0.09194600         13
Al         7.25513111       1.12340297       3.81296635         0.00000000       0.00000000       0.00000000        -0.05087700       0.04994500      -0.00189500         13
Al         2.43792664       3.75650607       4.31077675         0.00000000       0.00000000       0.00000000         0.12768600       0.05785800      -0.05829900         13
Al         4.12121968       1.01983795       4.88937948         0.00000000       0.00000000       0.00000000         0.04112400      -0.02522400      -0.01066600         13
Al         6.60760454       1.48478147       0.62133148         0.00000000       0.00000000       0.00000000         0.00624300       0.14828000      -0.10573000         13
Al         5.53476829       3.71449908       2.81823962         0.00000000       0.00000000       0.00000000        -0.15227100      -0.02889700       0.17364200         13
Al         6.22923878       3.49428595       6.06538373         0.00000000       0.00000000       0.00000000         0.03037200      -0.09351400      -0.08899800         13
3
pbc=[T, T, T] config_type=high_entropy dft_energy=-8.94170677 Lattice="9.99550800 0.00000000 0.00000000 0.70253100 2.71623900 0.00000000 0.04949200 -1.19766400 3.38292300" Properties=species:S:1:pos:R:3:velocities:R:3:dft_forces:R:3:Z:I:1
Al         5.39933813       1.31950721      -0.40774065         0.00000000       0.00000000       0.00000000        -0.07178600       0.11020500       0.14275300         13
Al         2.80812353       3.39973652       0.62433766         0.00000000       0.00000000       0.00000000         0.41081400      -0.10991500      -0.08887300         13
Al         8.20158807       1.34756222       1.67246608         0.00000000       0.00000000       0.00000000        -0.33902800      -0.00029100      -0.05388000         13
9
pbc=[T, T, T] config_type=high_entropy dft_energy=-32.27382282 Lattice="4.77302500 0.00000000 0.00000000 1.31152200 5.88282000 0.00000000 -1.80664700 0.55001300 6.36437200" Properties=species:S:1:pos:R:3:velocities:R:3:dft_forces:R:3:Z:I:1
Al         3.04121255       4.23224155       3.82246954         0.00000000       0.00000000       0.00000000        -0.00400200       0.02604700       0.08337300         13
Al         7.81637595       6.08728880       6.37947117         0.00000000       0.00000000       0.00000000        -0.00502100      -0.01180800      -0.00883500         13
Al         4.10243877      -0.23160734       4.72024206         0.00000000       0.00000000       0.00000000         0.04262600      -0.01578200      -0.05937600         13
Al         5.93720704       0.13795338       1.71495788         0.00000000       0.00000000       0.00000000        -0.02834200       0.01352300       0.08169200         13
Al         2.96177469       3.33157951       0.50093606         0.00000000       0.00000000       0.00000000         0.01015200      -0.01006300      -0.05955400         13
Al         8.30435288       2.49725207       6.02182046         0.00000000       0.00000000       0.00000000        -0.02021200       0.00722500       0.01206500         13
Al         3.51300807       1.54111963       2.62955167         0.00000000       0.00000000       0.00000000         0.00631800      -0.02119600      -0.08143800         13
Al         5.39343877       3.76723560       2.14752953         0.00000000       0.00000000       0.00000000        -0.00917800       0.00598300       0.01847500         13
Al         5.89383314       2.07266930       4.34267211         0.00000000       0.00000000       0.00000000         0.00765900       0.00607200       0.01359800         13
2
pbc=[T, T, T] config_type=high_entropy dft_energy=-1.39149991 Lattice="8.14297900 0.00000000 0.00000000 0.28449700 1.89232900 0.00000000 0.02845100 0.08841800 3.34301100" Properties=species:S:1:pos:R:3:velocities:R:3:dft_forces:R:3:Z:I:1
Al         2.73176697       0.59814584       2.17567789         0.00000000       0.00000000       0.00000000         0.58294900      -0.03143500      -0.00892400         13
Al         5.22126500       1.21467236       0.47254667         0.00000000       0.00000000       0.00000000        -0.58294900       0.03143500       0.00892400         13
16
pbc=[T, T, T] config_type=high_entropy dft_energy=-56.43481502 Lattice="6.36983400 0.00000000 0.00000000 -3.08293300 6.34361400 0.00000000 0.35391600 0.25290700 8.48556800" Properties=species:S:1:pos:R:3:velocities:R:3:dft_forces:R:3:Z:I:1
Al         2.42039349       2.97879904       2.02531320         0.00000000       0.00000000       0.00000000        -0.01283300       0.00622100      -0.00244200         13
Al         8.83701775       6.18143864       1.99868557         0.00000000       0.00000000       0.00000000        -0.01131600      -0.01494800       0.00702400         13
Al         5.72357006      -0.07372432       6.26675768         0.00000000       0.00000000       0.00000000        -0.00286800       0.00486900      -0.00683600         13
Al         5.76585149       3.12383954       6.24644685         0.00000000       0.00000000       0.00000000         0.00716800      -0.00504100      -0.00709500         13
Al         2.54414763      -0.07818833       6.26620748         0.00000000       0.00000000       0.00000000         0.00247700       0.01349400      -0.00735700         13
Al         1.12385849       4.74579907       8.39350556         0.00000000       0.00000000       0.00000000        -0.00284000       0.01044800      -0.00117500         13
Al         5.62406924       6.17253062       2.00194904         0.00000000       0.00000000       0.00000000         0.01383400      -0.00324100      -0.00594400         13
Al         4.06557913       1.45189625       4.13669016         0.00000000       0.00000000       0.00000000        -0.00232800       0.00205600       0.00851500         13
Al         7.24099218       1.45800307       4.14209015         0.00000000       0.00000000       0.00000000         0.00701700       0.00570300       0.00352200         13
Al         4.30316723       4.75753330       8.38344618         0.00000000       0.00000000       0.00000000        -0.00746900      -0.00415200       0.00333000         13
Al         4.23708500       1.59990640       8.36982832         0.00000000       0.00000000       0.00000000        -0.00513400      -0.01038400      -0.00357900         13
Al         4.10691945       4.63673649       4.12291618         0.00000000       0.00000000       0.00000000         0.00008600       0.00762700      -0.00118700         13
Al         7.29203850       4.65691917       4.11541428         0.00000000       0.00000000       0.00000000         0.00081700      -0.01768700       0.00083100         13
Al         5.58830214       2.98102258       2.01132653         0.00000000       0.00000000       0.00000000         0.01104100       0.00413900       0.00621000         13
Al         0.68857766       1.33913539      -0.13355166         0.00000000       0.00000000       0.00000000         0.01325600       0.00780900       0.00170400         13
Al         2.59083743       3.11836949       6.24118127         0.00000000       0.00000000       0.00000000        -0.01090800      -0.00691400       0.00447900         13
2
pbc=[T, T, T] config_type=high_entropy dft_energy=-2.65353446 Lattice="4.95180900 0.00000000 0.00000000 2.05469900 4.57283800 0.00000000 0.53468000 0.82870700 1.69640800" Properties=species:S:1:pos:R:3:velocities:R:3:dft_forces:R:3:Z:I:1
Al         5.81300438       3.15546020       1.50083516         0.00000000       0.00000000       0.00000000         0.30788400      -0.05314600      -0.03199600         13
Al         3.43343389       4.71253082       1.31417798         0.00000000       0.00000000       0.00000000        -0.30788400       0.05314600       0.03199600         13
2
pbc=[T, T, T] config_type=high_entropy dft_energy=2.22553437 Lattice="6.78790300 0.00000000 0.00000000 0.16187700 2.31767100 0.00000000 0.83412600 0.35203900 1.57697900" Properties=species:S:1:pos:R:3:velocities:R:3:dft_forces:R:3:Z:I:1
Al         3.63633688       2.18437370      -0.49140037         0.00000000       0.00000000       0.00000000         2.35973700      -0.05558000      -1.27119000         13
Al         2.51142097       1.57442685       2.09264590         0.00000000       0.00000000       0.00000000        -2.35973700       0.05558000       1.27119000         13
9
pbc=[T, T, T] config_type=high_entropy dft_energy=19.94575557 Lattice="9.12974300 0.00000000 0.00000000 1.01932100 2.66986100 0.00000000 1.24797800 -0.35715900 2.81554400" Properties=species:S:1:pos:R:3:velocities:R:3:dft_forces:R:3:Z:I:1
Al         1.94771588       1.51130231      -1.07892973         0.00000000       0.00000000       0.00000000        -2.54581200       1.72776900       2.61997600         13
Al         5.02345912       2.00736404       1.14959691         0.00000000       0.00000000       0.00000000         0.50927000      -0.21442700      -0.75507300         13
Al         3.94074881       0.82402346      -0.27220385         0.00000000       0.00000000       0.00000000         1.61040900      -0.88184400      -1.53967800         13
Al         8.62727425       0.79615776       2.86838441         0.00000000       0.00000000       0.00000000        -0.57783400       0.11222600       0.65760500         13
Al         3.09043352       2.65030279       0.30730288         0.00000000       0.00000000       0.00000000        -2.65192200       2.26946800       3.67793800         13
Al         9.31749246       0.50800659       0.89667011         0.00000000       0.00000000       0.00000000         2.49807900      -2.28644200      -3.71787800         13
Al        10.45577807       1.64862033       2.28289925         0.00000000       0.00000000       0.00000000         2.51661000      -1.72229700      -2.61561900         13
Al         7.43682435      -0.33873608       1.46951185         0.00000000       0.00000000       0.00000000        -1.38083700       1.00191300       1.74000900         13
Al         6.93819369      -0.11024845       3.41442095         0.00000000       0.00000000       0.00000000         0.02203700      -0.00636500      -0.06728000         13
8
pbc=[T, T, T] config_type=high_entropy dft_energy=-14.42880637 Lattice="10.10964400 0.00000000 0.00000000 0.39599300 4.06097600 0.00000000 1.25608100 1.22784300 2.52189900" Properties=species:S:1:pos:R:3:velocities:R:3:dft_forces:R:3:Z:I:1
Al         3.70571850       3.30671806       2.65086761         0.00000000       0.00000000       0.00000000         3.24806600      -1.25718700       0.00243300         13
Al         6.64741674       3.25962473       3.19062618         0.00000000       0.00000000       0.00000000        -3.25667300       1.24967700      -0.02983100         13
Al         3.06199824       4.05722573       0.66775796         0.00000000       0.00000000       0.00000000        -3.26184100       1.24843000       0.00679600         13
Al         8.11649838       4.07127024       0.67929296         0.00000000       0.00000000       0.00000000        -3.28984300       1.32559600       0.01618400         13
Al        10.44401097       2.02400044       0.66534949         0.00000000       0.00000000       0.00000000        -3.25814900       1.30648200      -0.03555900         13
Al         5.17497451       4.11429645       0.12781773         0.00000000       0.00000000       0.00000000         3.26852800      -1.25157400       0.01727300         13
Al         7.50756181       2.09312920       0.13616417         0.00000000       0.00000000       0.00000000         3.28182900      -1.28095300       0.02052700         13
Al         9.82988561       0.04679652       0.12352950         0.00000000       0.00000000       0.00000000         3.26808200      -1.34047200       0.00217700         13
2
pbc=[T, T, T] config_type=high_entropy dft_energy=-5.49454886 Lattice="5.58636600 0.00000000 0.00000000 0.73999900 4.86506000 0.00000000 0.17509800 -0.01091900 2.39405300" Properties=species:S:1:pos:R:3:velocities:R:3:dft_forces:R:3:Z:I:1
Al         5.30028477       0.98322523       0.86848545         0.00000000       0.00000000       0.00000000         0.18429300      -0.22459800       0.01946500         13
Al         2.74282570       3.99457313       1.98110877         0.00000000       0.00000000       0.00000000        -0.18429300       0.22459800      -0.01946500         13
2
pbc=[T, T, T] config_type=high_entropy dft_energy=-6.40229287 Lattice="8.23269300 0.00000000 0.00000000 0.29480400 2.38567600 0.00000000 0.38948700 1.04753600 2.42278200" Properties=species:S:1:pos:R:3:velocities:R:3:dft_forces:R:3:Z:I:1
Al         8.82165105       0.36488586       3.33941822         0.00000000       0.00000000       0.00000000        -0.36649200       0.04910000       0.04955900         13
Al         5.90263248       2.20593494      -0.31291640         0.00000000       0.00000000       0.00000000         0.36649200      -0.04910000      -0.04955900         13
7
pbc=[T, T, T] config_type=high_entropy dft_energy=-10.72028722 Lattice="10.30324800 0.00000000 0.00000000 0.76535200 3.11750400 0.00000000 0.86318500 1.52342600 3.06022300" Properties=species:S:1:pos:R:3:velocities:R:3:dft_forces:R:3:Z:I:1
Al        11.38017068       3.03059458       1.59171533         0.00000000       0.00000000       0.00000000         0.02044900      -0.16112800       1.43461200         13
Al         8.76509892       1.97211007       0.95113023         0.00000000       0.00000000       0.00000000         0.80502100      -0.37827900       0.22801600         13
Al         8.41477990       3.71710739       2.18810705         0.00000000       0.00000000       0.00000000        -5.26704800       1.08282500       1.86138800         13
Al         1.60944639       1.23223397       0.51649782         0.00000000       0.00000000       0.00000000         0.36358300      -0.06969600      -2.69868600         13
Al         4.11203482       2.32574880       1.05905184         0.00000000       0.00000000       0.00000000         5.20343100      -1.08105400      -2.26848700         13
Al        10.18921440       1.67378805       2.81338980         0.00000000       0.00000000       0.00000000        -0.66514500       0.44822000      -0.00847900         13
Al         3.73177320       4.07963925       2.26968791         0.00000000       0.00000000       0.00000000        -0.46029000       0.15911200       1.45163700         13
2
pbc=[T, T, T] config_type=high_entropy dft_energy=-5.64630832 Lattice="6.67639200 0.00000000 0.00000000 2.09036000 5.00991800 0.00000000 0.82244000 0.89860900 2.24051600" Properties=species:S:1:pos:R:3:velocities:R:3:dft_forces:R:3:Z:I:1
Al         0.90731481       3.40316809       1.28901465         0.00000000       0.00000000       0.00000000         0.48091800      -0.15905400      -0.11107300         13
Al         3.68673910       5.18372015       0.92831278         0.00000000       0.00000000       0.00000000        -0.48091800       0.15905400       0.11107300         13
4
pbc=[T, T, T] config_type=high_entropy dft_energy=-7.06331874 Lattice="3.73074500 0.00000000 0.00000000 0.63649000 3.79532100 0.00000000 1.30821100 0.83902700 3.87400000" Properties=species:S:1:pos:R:3:velocities:R:3:dft_forces:R:3:Z:I:1
Al         5.43007733       2.44891688       4.16970215         0.00000000       0.00000000       0.00000000        -4.50316200       2.66009200       4.31308300         13
Al         3.63568226      -0.11681891       1.49331146         0.00000000       0.00000000       0.00000000         1.09544200      -1.80567400      -3.08909000         13
Al         2.46654027       3.22810050       2.41742637         0.00000000       0.00000000       0.00000000        -1.14782200       2.96878300      -2.52491400         13
Al         3.25268428       1.34702248       3.20345280         0.00000000       0.00000000       0.00000000         4.55554100      -3.82320100       1.30092100         13
2
pbc=[T, T, T] config_type=high_entropy dft_energy=-5.46118640 Lattice="7.64254800 0.00000000 0.00000000 0.05904000 2.30276000 0.00000000 0.51629700 0.04288600 2.52763200" Properties=species:S:1:pos:R:3:velocities:R:3:dft_forces:R:3:Z:I:1
Al         0.73715073       1.09729849       1.67276076         0.00000000       0.00000000       0.00000000         0.31667100      -0.01553200      -0.06803900         13
Al         3.80409696       1.40329360       0.83860066         0.00000000       0.00000000       0.00000000        -0.31667100       0.01553200       0.06803900         13
7
pbc=[T, T, T] config_type=high_entropy dft_energy=-18.50158363 Lattice="6.96379900 0.00000000 0.00000000 2.97815900 5.99145500 0.00000000 1.01242600 0.08961600 2.51811300" Properties=species:S:1:pos:R:3:velocities:R:3:dft_forces:R:3:Z:I:1
Al         5.01413178       5.11324395       2.19551447         0.00000000       0.00000000       0.00000000        -1.22957400      -1.04038100       1.55692200         13
Al         6.77043506       5.29609622       0.74617900         0.00000000       0.00000000       0.00000000         1.66683300       1.25931000      -2.62960700         13
Al         0.83861593       0.86758544       0.97250430         0.00000000       0.00000000       0.00000000        -0.50076000      -0.99913400       0.62599200         13
Al         5.51629289       1.10087564       0.31619943         0.00000000       0.00000000       0.00000000        -2.21176700      -2.54766900       1.10657600         13
Al         2.87972041       1.68416395       1.58434915         0.00000000       0.00000000       0.00000000         2.00167300       1.24075100      -1.18744700         13
Al         4.77955720       3.03361843       1.24905847         0.00000000       0.00000000       0.00000000        -3.48967400       1.12832000       0.25707300         13
Al         6.99070828       3.03825403       1.27467562         0.00000000       0.00000000       0.00000000         3.76327000       0.95880300       0.27049100         13
7
pbc=[T, T, T] config_type=high_entropy dft_energy=-17.35882059 Lattice="9.47985000 0.00000000 0.00000000 0.93670300 2.13747500 0.00000000 0.92732900 -0.00643400 3.91742500" Properties=species:S:1:pos:R:3:velocities:R:3:dft_forces:R:3:Z:I:1
Al         3.57960122       0.76990915       3.35985497         0.00000000       0.00000000       0.00000000         3.14838000      -1.45894300      -0.36550800         13
Al         8.59563719       1.37681415       4.38223854         0.00000000       0.00000000       0.00000000        -2.38440700       1.07151200       0.66749900         13
Al         5.00034619       1.28077686       1.03055531         0.00000000       0.00000000       0.00000000        -0.46948500       0.34353200       0.16237200         13
Al         8.58550395      -0.06543007       2.20542713         0.00000000       0.00000000       0.00000000        -0.08199100       0.06003800       0.15831000         13
Al        10.03259013       1.62844617       0.02195245         0.00000000       0.00000000       0.00000000         2.12616900      -1.01969000      -0.66802500         13
Al         2.90868720       2.10931249       1.59034688         0.00000000       0.00000000       0.00000000        -3.50366000       1.59492000       0.47027900         13
Al         6.35858820       0.85307400       2.77604903         0.00000000       0.00000000       0.00000000         1.16499400      -0.59136900      -0.42492700         13
10
pbc=[T, T, T] config_type=high_entropy dft_energy=-28.89074790 Lattice="11.06285400 0.00000000 0.00000000 1.36722100 4.00175400 0.00000000 1.61374800 -0.53052000 3.47085000" Properties=species:S:1:pos:R:3:velocities:R:3:dft_forces:R:3:Z:I:1
Al         4.49853400       3.42766056       1.33693719         0.00000000       0.00000000       0.00000000         1.55124100       2.24800800      -2.30439800         13
Al         5.94276490       1.62908841       1.83495308         0.00000000       0.00000000       0.00000000         0.97507800      -0.29731500       0.99230700         13
Al         6.89155795       0.04409324       3.30537053         0.00000000       0.00000000       0.00000000        -1.59803200      -0.32321100       0.98630300         13
Al         7.79458188      -0.05878220       1.12549380         0.00000000       0.00000000       0.00000000         0.16716100       0.90740300       0.33591300         13
Al         9.72599601       2.35724412      -0.53806980         0.00000000       0.00000000       0.00000000         1.23659300       0.07719800      -1.90623600         13
Al         9.96559487       0.86536453       1.27405263         0.00000000       0.00000000       0.00000000        -0.37795100      -1.62603900       1.12437700         13
Al         7.52240478       2.44385089       0.30498353         0.00000000       0.00000000       0.00000000        -0.65891700      -1.70033000      -1.32286100         13
Al         4.31011826       2.11947385       3.43386754         0.00000000       0.00000000       0.00000000         0.89325000      -1.64247700       0.12656100         13
Al         2.57371408       0.49594464       3.40824393         0.00000000       0.00000000       0.00000000        -0.48668900       0.75197100       1.75875100         13
Al         2.35223560       2.73207723       2.28485988         0.00000000       0.00000000       0.00000000        -1.70173400       1.60479200       0.20928300         13
2
pbc=[T, T, T] config_type=high_entropy dft_energy=-5.82961836 Lattice="3.18338000 0.00000000 0.00000000 0.10100900 4.13463000 0.00000000 0.30414300 0.04037600 2.39404000" Properties=species:S:1:pos:R:3:velocities:R:3:dft_forces:R:3:Z:I:1
Al         2.67195434       2.33453348       1.20984932         0.00000000       0.00000000       0.00000000        -0.19716500       3.71488700      -0.13796300         13
Al         0.89105140       0.89756398       0.00114551         0.00000000       0.00000000       0.00000000         0.19716500      -3.71488700       0.13796300         13
7
pbc=[T, T, T] config_type=high_entropy dft_energy=-20.63820896 Lattice="7.60001900 0.00000000 0.00000000 1.57230800 5.42771100 0.00000000 0.81543500 1.10516900 5.36820800" Properties=species:S:1:pos:R:3:velocities:R:3:dft_forces:R:3:Z:I:1
Al         3.25195954       3.06265396       1.19032802         0.00000000       0.00000000       0.00000000        -0.04437400       0.02514800      -0.20035000         13
Al         5.35680777       5.43286817       0.15162979         0.00000000       0.00000000       0.00000000         0.20877700       0.02020900       0.02100400         13
Al         5.71037789       1.34971947       2.47898182         0.00000000       0.00000000       0.00000000         0.15557200      -0.03660300      -0.13176900         13
Al         8.31112880      -0.48341421       3.77997690         0.00000000       0.00000000       0.00000000        -0.32344500      -0.02477400      -0.00121300         13
Al         0.75348590       0.73745040       0.59795218         0.00000000       0.00000000       0.00000000        -0.12533200       0.01097700       0.14643900         13
Al         7.75657614       3.76924144       1.54334651         0.00000000       0.00000000       0.00000000        -0.04242200      -0.01340300       0.00268200         13
Al         5.87270034       2.39180404      -0.74995713         0.00000000       0.00000000       0.00000000         0.17122400       0.01844700       0.16320600         13
2
pbc=[T, T, T] config_type=high_entropy dft_energy=-6.91657023 Lattice="4.46783900 0.00000000 0.00000000 0.94142200 2.42834200 0.00000000 2.19526000 -1.06888000 3.65576800" Properties=species:S:1:pos:R:3:velocities:R:3:dft_forces:R:3:Z:I:1
Al         3.63449102       1.88927871       0.12672447         0.00000000       0.00000000       0.00000000         0.17748100      -0.13504300      -0.29012700         13
Al         5.91964355       1.95923660       1.36984266         0.00000000       0.00000000       0.00000000        -0.17748100       0.13504300       0.29012700         13
4
pbc=[T, T, T] config_type=high_entropy dft_energy=-12.09437101 Lattice="5.98789200 0.00000000 0.00000000 1.36872300 7.00614900 0.00000000 0.89475500 0.79721400 1.95412300" Properties=species:S:1:pos:R:3:velocities:R:3:dft_forces:R:3:Z:I:1
Al         0.40327351       1.99983640       2.05704581         0.00000000       0.00000000       0.00000000         0.07138600      -0.00751000       0.03809600         13
Al         5.87875891       4.76158146       0.91811319         0.00000000       0.00000000       0.00000000        -0.01194400      -0.00901800       0.02241800         13
Al         2.34922955       5.62750817      -0.58344553         0.00000000       0.00000000       0.00000000        -0.01925700      -0.06112400      -0.06777900         13
Al         3.24303159       3.21832496       1.45839754         0.00000000       0.00000000       0.00000000        -0.04018500       0.07765200       0.00726600         13
6
pbc=[T, T, T] config_type=high_entropy dft_energy=-21.81321294 Lattice="4.29814700 0.00000000 0.00000000 0.99963100 5.90067300 0.00000000 0.39159000 1.77070700 4.14193900" Properties=species:S:1:pos:R:3:velocities:R:3:dft_forces:R:3:Z:I:1
Al         0.47446586       0.80433667       2.05669571         0.00000000       0.00000000       0.00000000         0.07850700       0.02531500      -0.03730500         13
Al         1.01665093       4.18116296       0.69710123         0.00000000       0.00000000       0.00000000         0.09484300      -0.07469800      -0.07362100         13
Al         5.22530670       3.33637374       3.42862370         0.00000000       0.00000000       0.00000000         0.03951100       0.14425700      -0.02811200         13
Al         3.52634550       5.37931429       3.09092534         0.00000000       0.00000000       0.00000000        -0.02160000      -0.12742500       0.05838400         13
Al         3.05767508       2.78549584       1.69137280         0.00000000       0.00000000       0.00000000        -0.09623600       0.02571200       0.03446200         13
Al         2.97969626       2.01158580       4.46301575         0.00000000       0.00000000       0.00000000        -0.09502500       0.00683900       0.04619200         13
8
pbc=[T, T, T] config_type=high_entropy dft_energy=-27.35772503 Lattice="6.50671000 0.00000000 0.00000000 2.60198700 4.51237200 0.00000000 2.88683800 1.80080600 5.28489100" Properties=species:S:1:pos:R:3:velocities:R:3:dft_forces:R:3:Z:I:1
Al         6.80556211       4.35445090       1.33714963         0.00000000       0.00000000       0.00000000        -0.61405600      -0.70336200      -0.29397500         13
Al         2.52515672       2.61480934       3.00965411         0.00000000       0.00000000       0.00000000        -0.68419300       0.53140900      -0.55501300         13
Al         6.59193686       4.01696198       3.85465130         0.00000000       0.00000000       0.00000000         0.54948700       0.23975900       0.04280500         13
Al         5.04634613       2.16512032       2.96543298         0.00000000       0.00000000       0.00000000         0.02706700      -0.51441000       0.27965600         13
Al         9.83717338       5.24226811       2.27694094         0.00000000       0.00000000       0.00000000         0.36416000      -0.18851300       0.75610900         13
Al         4.35338408       3.61067414       5.12446061         0.00000000       0.00000000       0.00000000         0.06482500       0.13626300       0.24933600         13
Al         5.56118647       5.90561854       5.33310943         0.00000000       0.00000000       0.00000000         0.35758800      -0.62419100       0.05720900         13
Al         8.31599405       3.69659190       5.71940844         0.00000000       0.00000000       0.00000000        -0.06487800       1.12304500      -0.53612700         13
4
pbc=[T, T, T] config_type=high_entropy dft_energy=-12.38973282 Lattice="9.14318900 0.00000000 0.00000000 0.72188200 3.43470300 0.00000000 0.84813000 0.85800900 1.99747900" Properties=species:S:1:pos:R:3:velocities:R:3:dft_forces:R:3:Z:I:1
Al         5.41224477       2.18087881       0.81903633         0.00000000       0.00000000       0.00000000        -0.54349700      -0.00957400       0.25961300         13
Al         3.34598034       3.49950336       1.50526079         0.00000000       0.00000000       0.00000000         0.47480000       0.70735000      -0.23284000         13
Al         7.70866246       3.61361800       0.71130372         0.00000000       0.00000000       0.00000000         0.09549300       0.12012600      -0.39846800         13
Al        10.01965672       2.76774117       1.48383704         0.00000000       0.00000000       0.00000000        -0.02679700      -0.81790300       0.37169500         13
9
pbc=[T, T, T] config_type=high_entropy dft_energy=-30.77731052 Lattice="4.47187200 0.00000000 0.00000000 0.21777400 4.97582700 0.00000000 1.81153000 0.70702500 5.52395300" Properties=species:S:1:pos:R:3:velocities:R:3:dft_forces:R:3:Z:I:1
Al         4.94788685       2.80002387       2.61382514         0.00000000       0.00000000       0.00000000         0.03660000       0.00441300      -0.03083500         13
Al         3.66444982       0.54901647       2.02736320         0.00000000       0.00000000       0.00000000        -0.08643600       0.14241700      -0.11061900         13
Al         2.06004023       4.49113303       5.72987468         0.00000000       0.00000000       0.00000000        -0.10963200      -0.80703600      -0.23304700         13
Al         4.13672389       4.52607085       4.41329287         0.00000000       0.00000000       0.00000000        -0.01439000       0.06494300       0.24970500         13
Al         2.81681948       2.31992741       3.79979233         0.00000000       0.00000000       0.00000000        -0.12810700       0.17047800       0.30991600         13
Al         6.22492256       5.05115975       3.19026863         0.00000000       0.00000000       0.00000000         0.09095800      -0.12599800       0.03782300         13
Al         1.27001492       1.09342244       0.78919943         0.00000000       0.00000000       0.00000000         0.10184500      -0.12616900      -0.15267500         13
Al         3.36932283       1.10221397      -0.50347821         0.00000000       0.00000000       0.00000000         0.05457800       0.85051200       0.15888700         13
Al         2.60787668       3.28422922       1.40224931         0.00000000       0.00000000       0.00000000         0.05458400      -0.17356000      -0.22915600         13
3
pbc=[T, T, T] config_type=high_entropy dft_energy=-5.07822860 Lattice="7.21107900 0.00000000 0.00000000 0.04875200 6.90378000 0.00000000 0.79197900 0.54288900 1.82626200" Properties=species:S:1:pos:R:3:velocities:R:3:dft_forces:R:3:Z:I:1
Al         7.90508262       7.75523337       0.67295789         0.00000000       0.00000000       0.00000000         0.05774700       0.02821000      -0.11214800         13
Al         4.92938994       1.43487222       2.03309787         0.00000000       0.00000000       0.00000000        -0.05588500      -0.01648600       0.08884800         13
Al         1.09272877       4.25137952       0.44716977         0.00000000       0.00000000       0.00000000        -0.00186200      -0.01172500       0.02330000         13
2
pbc=[T, T, T] config_type=high_entropy dft_energy=-0.60626897 Lattice="7.22890000 0.00000000 0.00000000 2.17946400 5.54482900 0.00000000 0.76632000 0.65842100 1.63310600" Properties=species:S:1:pos:R:3:velocities:R:3:dft_forces:R:3:Z:I:1
Al         4.82924041       2.48368900       1.75365563         0.00000000       0.00000000       0.00000000         0.55115900      -0.15661700      -0.18544400         13
Al         8.08450888       4.49136750       1.30510425         0.00000000       0.00000000       0.00000000        -0.55115900       0.15661700       0.18544400         13
13
pbc=[T, T, T] config_type=high_entropy dft_energy=-31.42961956 Lattice="22.79115400 0.00000000 0.00000000 0.39102700 5.74825700 0.00000000 0.96916300 2.19287500 4.03019500" Properties=species:S:1:pos:R:3:velocities:R:3:dft_forces:R:3:Z:I:1
Al        13.76712553       5.65752868      -0.89151270         0.00000000       0.00000000       0.00000000         0.05900000       0.02374100      -0.05758200         13
Al         0.63573408       6.25702486       3.82789849         0.00000000       0.00000000       0.00000000         0.03080000       0.00259000       0.02277000         13
Al         8.91465906       6.01811431       3.02306292         0.00000000       0.00000000       0.00000000        -0.11572800       0.05427600      -0.02613900         13
Al        12.16726694       2.95194871       0.51111808         0.00000000       0.00000000       0.00000000         0.18241500      -0.12064800       0.01856600         13
Al        19.64912004       6.64597605       2.98691778         0.00000000       0.00000000       0.00000000        -0.06420600       0.01467700       0.03799700         13
Al         2.28258678       3.18924917       4.38229048         0.00000000       0.00000000       0.00000000         0.02133700      -0.01224300      -0.01867800         13
Al        15.93325401       4.81219678       1.74934506         0.00000000       0.00000000       0.00000000        -0.00464000      -0.00852300       0.00964300         13
Al         5.88751418       1.14119367      -1.67276695         0.00000000       0.00000000       0.00000000        -0.01805900       0.00097800      -0.01441600         13
Al        -1.38007815       3.57327270       3.20297167         0.00000000       0.00000000       0.00000000        -0.00588600       0.01035000       0.04767300         13
Al         9.61190766       0.74914262      -0.33033565         0.00000000       0.00000000       0.00000000        -0.07534100       0.05863600      -0.03228900         13
Al         4.84330091       0.64630105       1.70396359         0.00000000       0.00000000       0.00000000        -0.02967800       0.00781400       0.00489600         13
Al         3.26809211       3.68606444       1.00808976         0.00000000       0.00000000       0.00000000        -0.00219900      -0.00844900      -0.01463700         13
Al        18.05073031       3.95825080       4.38941183         0.00000000       0.00000000       0.00000000         0.02218600      -0.02319900       0.02219600         13
6
pbc=[T, T, T] config_type=high_entropy dft_energy=-15.96074689 Lattice="8.30802700 0.00000000 0.00000000 3.80687100 7.96787200 0.00000000 0.69960000 0.30116900 3.27039800" Properties=species:S:1:pos:R:3:velocities:R:3:dft_forces:R:3:Z:I:1
Al         3.53786379       4.92084835       3.38099661         0.00000000       0.00000000       0.00000000         0.16347100       0.13458400      -0.05645300         13
Al         3.70489432       1.65932596       2.02010795         0.00000000       0.00000000       0.00000000         0.18393700      -0.10085900      -0.02689500         13
Al         6.54432269       3.63158936       1.25096391         0.00000000       0.00000000       0.00000000        -0.17875700       0.09788500       0.02870300         13
Al         8.70914802       6.24084622       2.18877623         0.00000000       0.00000000       0.00000000        -0.02806600       0.08185100      -0.01167800         13
Al         5.32233965       7.02119867       1.07717702         0.00000000       0.00000000       0.00000000         0.03427000      -0.08389500       0.01147600         13
Al        11.17544303       8.63338530       3.14690595         0.00000000       0.00000000       0.00000000        -0.17485600      -0.12956500       0.05484700         13
3
pbc=[T, T, T] config_type=high_entropy dft_energy=-7.00649584 Lattice="6.99281000 0.00000000 0.00000000 2.33359900 7.34289400 0.00000000 0.07608500 1.20097500 2.65712800" Properties=species:S:1:pos:R:3:velocities:R:3:dft_forces:R:3:Z:I:1
Al         6.50313390       0.61919329       1.27037478         0.00000000       0.00000000       0.00000000         0.00253900       0.23881500      -0.11154200         13
Al         5.09008365       9.33709902      -0.13271635         0.00000000       0.00000000       0.00000000         0.16670300       0.00413700      -0.00362700         13
Al         5.60093439       4.63809192       0.53599136         0.00000000       0.00000000       0.00000000        -0.16924200      -0.24295200       0.11517000         13
2
pbc=[T, T, T] config_type=high_entropy dft_energy=0.36183357 Lattice="7.85317700 0.00000000 0.00000000 0.12561400 1.83549100 0.00000000 0.05358600 0.25745100 3.00771700" Properties=species:S:1:pos:R:3:velocities:R:3:dft_forces:R:3:Z:I:1
Al         2.85735246       2.12429297       2.75349697         0.00000000       0.00000000       0.00000000        -0.50285800       0.08827600      -0.02458800         13
Al         0.27564753       1.35422724       1.37581245         0.00000000       0.00000000       0.00000000         0.50285800      -0.08827600       0.02458800         13
3
pbc=[T, T, T] config_type=high_entropy dft_energy=4.32394238 Lattice="6.75919200 0.00000000 0.00000000 0.78993400 1.81659500 0.00000000 0.07724800 0.61002300 1.94502500" Properties=species:S:1:pos:R:3:velocities:R:3:dft_forces:R:3:Z:I:1
Al         0.84696100       0.99852100       1.47327923         0.00000000       0.00000000       0.00000000        -0.15291900       0.03833300      -0.03342400         13
Al         5.59471924       1.40304958       0.80531665         0.00000000       0.00000000       0.00000000        -0.06803100       0.05521100      -0.03870200         13
Al         2.85350869       0.59223456       2.11975989         0.00000000       0.00000000       0.00000000         0.22095000      -0.09354500       0.07212600         13
3
pbc=[T, T, T] config_type=high_entropy dft_energy=-4.39015388 Lattice="5.74767000 0.00000000 0.00000000 1.52297800 5.68819500 0.00000000 0.35792300 -0.03938600 1.95814900" Properties=species:S:1:pos:R:3:velocities:R:3:dft_forces:R:3:Z:I:1
Al         0.91506666       1.12400271       1.74289461         0.00000000       0.00000000       0.00000000        -0.08919300       0.30511000       0.04303800         13
Al         3.28907377       2.72271640       0.33504469         0.00000000       0.00000000       0.00000000        -0.01026200      -0.00353400       0.03108900         13
Al         0.32684111       4.24363699       1.01073555         0.00000000       0.00000000       0.00000000         0.09945500      -0.30157600      -0.07412700         13
19
pbc=[T, T, T] config_type=high_entropy dft_energy=-45.46938050 Lattice="9.88000800 0.00000000 0.00000000 1.53653900 9.35430200 0.00000000 2.88922000 4.11528200 8.41266300" Properties=species:S:1:pos:R:3:velocities:R:3:dft_forces:R:3:Z:I:1
Al         6.62898537       0.06900312       1.83764892         0.00000000       0.00000000       0.00000000        -0.02324700       0.07839500      -0.07767900         13
Al         5.18480288       6.52899003       7.09823442         0.00000000       0.00000000       0.00000000         0.04830300       0.06054300       0.05123700         13
Al         5.14456879       9.99975930       6.99914723         0.00000000       0.00000000       0.00000000        -0.00000900       0.07198800       0.11164900         13
Al         7.63273168       7.95866805       4.97213491         0.00000000       0.00000000       0.00000000        -0.10353000      -0.10885700      -0.05118100         13
Al        10.80047065      11.92233961       4.28322865         0.00000000       0.00000000       0.00000000        -0.07048000       0.17363200       0.04413400         13
Al        12.56064148       8.92870501       4.72008292         0.00000000       0.00000000       0.00000000         0.01349400       0.10841900      -0.18484300         13
Al        10.90357914      11.36916768       0.80616777         0.00000000       0.00000000       0.00000000         0.09344100      -0.11762300       0.17888800         13
Al         5.91482840       3.29797285       0.28342414         0.00000000       0.00000000       0.00000000        -0.02234700      -0.12455100       0.11689500         13
Al         4.84901737       5.62543126       3.59247066         0.00000000       0.00000000       0.00000000         0.02126100      -0.15718000       0.01031800         13
Al         7.26105422      11.60329037       4.57592188         0.00000000       0.00000000       0.00000000        -0.02081500      -0.07819900       0.00978700         13
Al         8.00537661       4.44013857       6.97498297         0.00000000       0.00000000       0.00000000         0.04113300      -0.05448900       0.14291000         13
Al         8.05533223      11.05093648       8.64149415         0.00000000       0.00000000       0.00000000        -0.01821700      -0.01207800       0.06860400         13
Al        10.56029620       6.02274294       4.71597387         0.00000000       0.00000000       0.00000000        -0.05780500      -0.12458300      -0.21969500         13
Al         4.42352592      13.32460859       6.49229280         0.00000000       0.00000000       0.00000000         0.02093200       0.05977800       0.11125100         13
Al         2.07299763       4.24782329       1.72321717         0.00000000       0.00000000       0.00000000        -0.05340300       0.04395700      -0.14922800         13
Al         8.14971147       5.21686087       2.25498504         0.00000000       0.00000000       0.00000000         0.04691000      -0.02286500      -0.00784200         13
Al         1.58203094       7.77224294       1.56775673         0.00000000       0.00000000       0.00000000        -0.07703600      -0.11044400      -0.07992200         13
Al         3.16691273       0.86980573       2.04992671         0.00000000       0.00000000       0.00000000         0.02307200       0.05153400      -0.14980600         13
Al        11.72158279      11.10133767       7.68112128         0.00000000       0.00000000       0.00000000         0.13834100       0.26262500       0.07452400         13
8
pbc=[T, T, T] config_type=high_entropy dft_energy=-20.92216177 Lattice="7.11330200 0.00000000 0.00000000 1.49823400 6.66638200 0.00000000 3.35938800 2.84680600 5.92020200" Properties=species:S:1:pos:R:3:velocities:R:3:dft_forces:R:3:Z:I:1
Al         5.43721526       4.51373579       3.67456911         0.00000000       0.00000000       0.00000000        -0.00910700       0.01020300       0.01611400         13
Al         7.94728243       7.84498408       3.69294189         0.00000000       0.00000000       0.00000000        -0.02476000       0.00914200       0.01560600         13
Al        10.00094963       6.32603439       0.71074638         0.00000000       0.00000000       0.00000000         0.01485200      -0.01004600      -0.02095700         13
Al         4.40081369       7.85118764       3.70051150         0.00000000       0.00000000       0.00000000        -0.01402700       0.01330800       0.02218200         13
Al         7.43002863       2.97901015       0.70846596         0.00000000       0.00000000       0.00000000         0.01217700      -0.01366700      -0.01613100         13
Al         8.99047075       4.51931022       3.68344942         0.00000000       0.00000000       0.00000000        -0.01261100       0.01214500       0.01946400         13
Al         7.22717692       5.82505429       6.62643396         0.00000000       0.00000000       0.00000000         0.00995800      -0.01420800      -0.01836600         13
Al         9.80972989       9.17610393       6.63067833         0.00000000       0.00000000       0.00000000         0.02351800      -0.00687900      -0.01791300         13
2
pbc=[T, T, T] config_type=high_entropy dft_energy=-5.79844975 Lattice="10.45122700 0.00000000 0.00000000 1.09057100 2.36338500 0.00000000 0.89322000 0.59200100 2.02793600" Properties=species:S:1:pos:R:3:velocities:R:3:dft_forces:R:3:Z:I:1
Al         8.22885408       1.37689152       1.80928797         0.00000000       0.00000000       0.00000000         0.31979400      -0.13097700      -0.09166400         13
Al        10.79450662       0.80805878      -0.10812603         0.00000000       0.00000000       0.00000000        -0.31979400       0.13097700       0.09166400         13
4
pbc=[T, T, T] config_type=high_entropy dft_energy=-9.75364564 Lattice="4.34098200 0.00000000 0.00000000 1.68974400 3.22630000 0.00000000 1.91172300 -0.27944100 4.07573900" Properties=species:S:1:pos:R:3:velocities:R:3:dft_forces:R:3:Z:I:1
Al         3.72303305       3.70755945       0.39205343         0.00000000       0.00000000       0.00000000         4.49147100      -0.69465600      -0.97245200         13
Al         4.42535906       1.52474029       0.66649492         0.00000000       0.00000000       0.00000000        -4.01222000       0.88886800       2.51937300         13
Al         2.71271678       0.70134873       2.72617626         0.00000000       0.00000000       0.00000000        -0.28361100      -1.89995400      -3.49856400         13
Al         6.36368701       2.55461520       1.54626396         0.00000000       0.00000000       0.00000000        -0.19564000       1.70574100       1.95164300         13
6
pbc=[T, T, T] config_type=high_entropy dft_energy=-19.74667869 Lattice="13.64413400 0.00000000 0.00000000 0.34203200 3.54799800 0.00000000 1.22522800 0.41691000 3.13933700" Properties=species:S:1:pos:R:3:velocities:R:3:dft_forces:R:3:Z:I:1
Al        13.39311131       3.43643690       1.59308414         0.00000000       0.00000000       0.00000000         0.06349900       0.01663900       0.04349100         13
Al         0.72721585       1.48457084      -0.29568594         0.00000000       0.00000000       0.00000000         0.01852500       0.00357100      -0.07830800         13
Al         7.38180055       3.45138202       2.62788029         0.00000000       0.00000000       0.00000000        -0.12168200       0.11040400       0.26562000         13
Al        12.17227172       1.93413918       3.61922138         0.00000000       0.00000000       0.00000000         0.28949300      -0.04967900      -0.00346700         13
Al         3.13499687       3.44521253       0.84499162         0.00000000       0.00000000       0.00000000        -0.13747300       0.05225400       0.03510700         13
Al         5.14127822       1.90529166       2.01918635         0.00000000       0.00000000       0.00000000        -0.11236100      -0.13318800      -0.26244200         13
4
pbc=[T, T, T] config_type=high_entropy dft_energy=-0.68187054 Lattice="7.28409500 0.00000000 0.00000000 2.25033400 7.17046000 0.00000000 0.46089100 -0.03736900 1.82425900" Properties=species:S:1:pos:R:3:velocities:R:3:dft_forces:R:3:Z:I:1
Al         9.50664916       5.09937372       1.21134220         0.00000000       0.00000000       0.00000000         0.11009300       0.02146700      -0.06056500         13
Al         7.47670942       7.67157648      -0.03361246         0.00000000       0.00000000       0.00000000        -0.17040300      -0.52527400       0.04943800         13
Al         1.63166504       2.21726713       0.10840926         0.00000000       0.00000000       0.00000000         0.07804300       0.17366900      -0.00225700         13
Al         5.44208460       5.70674830       1.34383403         0.00000000       0.00000000       0.00000000        -0.01773200       0.33013700       0.01338500         13
3
pbc=[T, T, T] config_type=high_entropy dft_energy=-9.11113358 Lattice="6.02096400 0.00000000 0.00000000 1.07054400 3.68483300 0.00000000 0.14602300 0.28814700 3.95684900" Properties=species:S:1:pos:R:3:velocities:R:3:dft_forces:R:3:Z:I:1
Al         4.68527551       3.04240202       2.05688430         0.00000000       0.00000000       0.00000000         0.00406200       0.00378800      -0.00402100         13
Al         5.63706081       0.51594784       0.00695093         0.00000000       0.00000000       0.00000000        -0.15637600       0.03499900       0.02509700         13
Al         2.67672005       1.87637909       4.08712762         0.00000000       0.00000000       0.00000000         0.15231400      -0.03878700      -0.02107700         13
7
pbc=[T, T, T] config_type=high_entropy dft_energy=-18.98891135 Lattice="7.56528000 0.00000000 0.00000000 3.14491800 7.55027500 0.00000000 0.16645500 1.01463800 4.26578400" Properties=species:S:1:pos:R:3:velocities:R:3:dft_forces:R:3:Z:I:1
Al         1.88631921       4.91752755       5.24764662         0.00000000       0.00000000       0.00000000        -0.05264600       0.02649900      -0.00877700         13
Al         4.74018717       8.10283487      -0.36393157         0.00000000       0.00000000       0.00000000        -0.08071900       0.12132900      -0.01612100         13
Al         6.62886498       2.26503504       1.51763938         0.00000000       0.00000000       0.00000000         0.05326500      -0.02580400       0.00509500         13
Al         3.31095560       6.59131943       2.40005923         0.00000000       0.00000000       0.00000000        -0.10903100       0.05051100       0.02722700         13
Al         4.09945980       2.58772434      -0.89621522         0.00000000       0.00000000       0.00000000        -0.00190600       0.00120900      -0.00026300         13
Al         8.37299226       8.13799193       4.37878441         0.00000000       0.00000000       0.00000000         0.11025500      -0.05622900      -0.02402800         13
Al         3.62407857      -1.91627219       2.87617773         0.00000000       0.00000000       0.00000000         0.08078000      -0.11751500       0.01686600         13
4
pbc=[T, T, T] config_type=high_entropy dft_energy=-5.20688315 Lattice="4.26912500 0.00000000 0.00000000 1.01502500 2.53243500 0.00000000 1.81394100 0.32606300 3.60301600" Properties=species:S:1:pos:R:3:velocities:R:3:dft_forces:R:3:Z:I:1
Al         1.13997516       0.75897755       1.66443013         0.00000000       0.00000000       0.00000000         1.25048800      -0.01120600       1.36248700         13
Al         3.32013532       1.00605066       2.39696489         0.00000000       0.00000000       0.00000000        -0.39073800      -1.25807100      -1.06050100         13
Al         4.09579794      -0.20951591       0.15408268         0.00000000       0.00000000       0.00000000        -0.94756500      -0.84099200       0.19914300         13
Al         2.96562859       1.54645437       0.28522264         0.00000000       0.00000000       0.00000000         0.08781600       2.11026900      -0.50112900         13
6
pbc=[T, T, T] config_type=high_entropy dft_energy=-20.10608784 Lattice="11.83052600 0.00000000 0.00000000 1.29463500 3.27917800 0.00000000 0.33683500 1.49551000 3.54401900" Properties=species:S:1:pos:R:3:velocities:R:3:dft_forces:R:3:Z:I:1
Al         8.94609818       0.20796788       1.60885933         0.00000000       0.00000000       0.00000000        -0.01109600       0.01458900       0.01738700         13
Al         7.67472770       2.36677073       2.99538855         0.00000000       0.00000000       0.00000000         0.08618600      -0.03974400       0.00261900         13
Al         4.35712086       3.40970848       0.24608713         0.00000000       0.00000000       0.00000000        -0.00893000       0.02304500       0.01695400         13
Al         5.35996345       1.24714000       1.60483479         0.00000000       0.00000000       0.00000000         0.00597100      -0.02731100       0.03338600         13
Al         1.89787454       2.37688376       1.61566955         0.00000000       0.00000000       0.00000000         0.02481600       0.00601600       0.01442000         13
Al         0.73281546       4.62673244       2.99921727         0.00000000       0.00000000       0.00000000        -0.09694600       0.02340500      -0.08476500         13
7
pbc=[T, T, T] config_type=high_entropy dft_energy=-18.14261998 Lattice="12.69766100 0.00000000 0.00000000 2.67558700 4.82136300 0.00000000 1.26059900 -0.65368600 4.44383600" Properties=species:S:1:pos:R:3:velocities:R:3:dft_forces:R:3:Z:I:1
Al        11.12397291       3.29105180       0.88249121         0.00000000       0.00000000       0.00000000        -0.13745400       0.12408000       0.00311200         13
Al        13.83727640       0.39836416       3.35826715         0.00000000       0.00000000       0.00000000        -0.02850400       0.38322100      -0.04418000         13
Al         8.24613609       1.83330446       1.48088975         0.00000000       0.00000000       0.00000000        -0.02849500      -0.01143800       0.02823100         13
Al        10.53861939      -0.02409254       2.97390509         0.00000000       0.00000000       0.00000000        -0.19439200       0.12741800       0.23022200         13
Al        15.47093064       1.39697428       0.66676265         0.00000000       0.00000000       0.00000000         0.28146000      -0.51174500      -0.15300500         13
Al         5.57652815       3.02136956      -0.01300572         0.00000000       0.00000000       0.00000000         0.08674800      -0.17224100      -0.06772800         13
Al         5.47433126       0.22829564       2.14815109         0.00000000       0.00000000       0.00000000         0.02063700       0.06070400       0.00334800         13
5
pbc=[T, T, T] config_type=high_entropy dft_energy=-13.64701452 Lattice="8.13261700 0.00000000 0.00000000 0.13832100 8.98935500 0.00000000 0.98511600 0.21701700 2.30815600" Properties=species:S:1:pos:R:3:velocities:R:3:dft_forces:R:3:Z:I:1
Al         4.27962993      -1.42629094       1.23229203         0.00000000       0.00000000       0.00000000         0.05104400       0.28721900      -0.05197900         13
Al         0.86347796      -0.29961914       1.50272191         0.00000000       0.00000000       0.00000000         0.03804900       0.05114000      -0.02720000         13
Al         6.16557639       1.90601600       1.51576282         0.00000000       0.00000000       0.00000000        -0.05401000      -0.09945600       0.04702700         13
Al         1.75139393       2.79269469      -0.53115879         0.00000000       0.00000000       0.00000000        -0.03027500      -0.29214600       0.05478500         13
Al         7.39979387       5.30120044       0.83342646         0.00000000       0.00000000       0.00000000        -0.00480800       0.05324300      -0.02263200         13
2
pbc=[T, T, T] config_type=high_entropy dft_energy=-0.52316798 Lattice="6.99639200 0.00000000 0.00000000 0.26803500 1.85408300 0.00000000 0.06873000 -0.81511200 2.42428000" Properties=species:S:1:pos:R:3:velocities:R:3:dft_forces:R:3:Z:I:1
Al         4.25786575       1.96388235       2.15898552         0.00000000       0.00000000       0.00000000        -0.07407900       0.00292600      -0.05944000         13
Al         1.29275084       1.52575509       1.34255957         0.00000000       0.00000000       0.00000000         0.07407900      -0.00292600       0.05944000         13
2
pbc=[T, T, T] config_type=high_entropy dft_energy=-6.13798042 Lattice="9.19326800 0.00000000 0.00000000 0.06862600 2.72927700 0.00000000 0.43490500 0.76301900 2.66688900" Properties=species:S:1:pos:R:3:velocities:R:3:dft_forces:R:3:Z:I:1
Al         7.95963710       2.78304440       1.20423688         0.00000000       0.00000000       0.00000000        -0.47238800       0.03459600       0.08443800         13
Al         4.31887677       0.74574698       0.34876163         0.00000000       0.00000000       0.00000000         0.47238800      -0.03459600      -0.08443800         13
5
pbc=[T, T, T] config_type=high_entropy dft_energy=-16.28052217 Lattice="9.48163700 0.00000000 0.00000000 1.04878200 4.01932900 0.00000000 0.38642000 1.76032100 3.24989700" Properties=species:S:1:pos:R:3:velocities:R:3:dft_forces:R:3:Z:I:1
Al         7.53123798       2.11012155       0.08799560         0.00000000       0.00000000       0.00000000        -0.00735000      -0.00355200      -0.00752100         13
Al         5.23038019       0.50673432       1.08306398         0.00000000       0.00000000       0.00000000        -0.05974600      -0.02168900       0.03271200         13
Al         0.71600371       5.46604686       2.34065140         0.00000000       0.00000000       0.00000000         0.07706100       0.03648300      -0.03697000         13
Al         3.89007453       2.93847800       0.59748698         0.00000000       0.00000000       0.00000000         0.09549200      -0.04564300       0.00423300         13
Al         2.03570629       3.04916223       2.90978110         0.00000000       0.00000000       0.00000000        -0.10545700       0.03440100       0.00754700         13
4
pbc=[T, T, T] config_type=high_entropy dft_energy=-8.86513459 Lattice="7.60504400 0.00000000 0.00000000 0.95435400 7.46210000 0.00000000 0.49200400 0.68296700 3.28383600" Properties=species:S:1:pos:R:3:velocities:R:3:dft_forces:R:3:Z:I:1
Al         1.18952478       1.87701665      -0.67932896         0.00000000       0.00000000       0.00000000        -0.13154200      -0.45050900       0.14304500         13
Al         5.23971772       2.81484818      -0.26122534         0.00000000       0.00000000       0.00000000         0.09168100      -0.13596200       0.00257800         13
Al         6.90970720      -0.35263583       1.72518831         0.00000000       0.00000000       0.00000000        -0.19957300       0.36913500      -0.05205100         13
Al         3.39888504      -0.74225641       0.57296630         0.00000000       0.00000000       0.00000000         0.23943400       0.21733600      -0.09357300         13
6
pbc=[T, T, T] config_type=high_entropy dft_energy=-20.29892621 Lattice="4.53520800 0.00000000 0.00000000 -2.15772100 6.53044800 0.00000000 0.50282500 2.43778800 4.88764200" Properties=species:S:1:pos:R:3:velocities:R:3:dft_forces:R:3:Z:I:1
Al         3.02357201       5.67651504       3.55203986         0.00000000       0.00000000       0.00000000         0.00664500      -0.00982400      -0.14785900         13
Al         3.19134407       7.85032551       1.45349655         0.00000000       0.00000000       0.00000000        -0.07488700      -0.02663600       0.18222500         13
Al         5.33602068       5.61807153       1.53446189         0.00000000       0.00000000       0.00000000        -0.00155200       0.00088800       0.16093100         13
Al         3.02380283       3.46994874       1.50149233         0.00000000       0.00000000       0.00000000        -0.05254500      -0.00223600       0.15240800         13
Al         5.17235180       3.39417230       3.58325679         0.00000000       0.00000000       0.00000000         0.03931700       0.04139600      -0.18483100         13
Al         5.29459591       7.81261645       3.59563587         0.00000000       0.00000000       0.00000000         0.08302200      -0.00358700      -0.16287200         13
4
pbc=[T, T, T] config_type=high_entropy dft_energy=-9.91663310 Lattice="8.05370300 0.00000000 0.00000000 3.72288300 7.29069600 0.00000000 1.47547500 -0.45916500 2.75053400" Properties=species:S:1:pos:R:3:velocities:R:3:dft_forces:R:3:Z:I:1
Al         3.34795351       5.01485449       0.02683341         0.00000000       0.00000000       0.00000000        -0.05866900      -0.13313700       0.03079300         13
Al         2.46226647       1.54603777       0.60772630         0.00000000       0.00000000       0.00000000        -0.03969500       0.39271100       0.06748100         13
Al         6.73378086       1.08712404       1.17999208         0.00000000       0.00000000       0.00000000         0.10431700       0.19704500      -0.01108500         13
Al         8.65342232       3.91106733       2.43527290         0.00000000       0.00000000       0.00000000        -0.00595400      -0.45661900      -0.08719000         13
19
pbc=[T, T, T] config_type=high_entropy dft_energy=-58.82905048 Lattice="10.10091400 0.00000000 0.00000000 2.57869800 9.75897100 0.00000000 0.40107600 0.09039700 5.43240700" Properties=species:S:1:pos:R:3:velocities:R:3:dft_forces:R:3:Z:I:1
Al         5.41514294       3.90478473       1.56043817         0.00000000       0.00000000       0.00000000         0.03093000       0.02658600      -0.08290900         13
Al        10.93285928       7.90376843       3.95548564         0.00000000       0.00000000       0.00000000         0.04085900      -0.09836300       0.13532900         13
Al         7.93180947       2.35777843       5.07115919         0.00000000       0.00000000       0.00000000         0.10563200      -0.03741000      -0.00565700         13
Al         6.10493847       1.19376569       2.88232514         0.00000000       0.00000000       0.00000000        -0.03145100       0.03164600       0.03786600         13
Al         6.40198932       9.11235489       3.89311380         0.00000000       0.00000000       0.00000000        -0.03789700       0.05661900       0.04194400         13
Al         3.34610431       2.56128615      -0.32501110         0.00000000       0.00000000       0.00000000        -0.08863800       0.06829900       0.03214500         13
Al         6.59903450       6.73176673       1.95239412         0.00000000       0.00000000       0.00000000         0.01923400      -0.09087700       0.05632300         13
Al         8.60314875       5.85652725       4.33515956         0.00000000       0.00000000       0.00000000        -0.02034200       0.00637900      -0.11212400         13
Al         3.65046475       7.44955245       2.69912838         0.00000000       0.00000000       0.00000000        -0.07378600      -0.08066900      -0.01283200         13
Al         8.53131677       3.55272591       2.27230338         0.00000000       0.00000000       0.00000000        -0.07287000       0.04192400      -0.00681700         13
Al        10.74672772       1.23639208       3.53349654         0.00000000       0.00000000       0.00000000        -0.00514500       0.01382700       0.06962400         13
Al         2.66444817       6.15111792       5.70505876         0.00000000       0.00000000       0.00000000         0.01976800       0.00355300      -0.01761900         13
Al         9.62858397       6.58283130       1.50548979         0.00000000       0.00000000       0.00000000        -0.07877400      -0.01014100      -0.10947600         13
Al        10.77963756       3.83161719       5.22407791         0.00000000       0.00000000       0.00000000        -0.02165300       0.11175300       0.01660900         13
Al         2.52224151       4.22023438       2.74150886         0.00000000       0.00000000       0.00000000         0.08884700       0.04242800       0.02291500         13
Al         2.40580647       0.08263531       1.24880171         0.00000000       0.00000000       0.00000000        -0.01517000      -0.11364400       0.04050900         13
Al        12.45065217       9.38835143       6.21364717         0.00000000       0.00000000       0.00000000         0.01220600      -0.11926100      -0.06076000         13
Al         5.56743925       6.14339027       4.77184739         0.00000000       0.00000000       0.00000000         0.01075100       0.11517600       0.01694200         13
Al         5.91706899      -0.40693975       0.27011268         0.00000000       0.00000000       0.00000000         0.11749900       0.03217600      -0.06201100         13
4
pbc=[T, T, T] config_type=high_entropy dft_energy=-8.74043622 Lattice="8.01574200 0.00000000 0.00000000 1.10875300 6.82920600 0.00000000 0.82701700 -0.03704500 1.95904600" Properties=species:S:1:pos:R:3:velocities:R:3:dft_forces:R:3:Z:I:1
Al         7.45420543       2.48691964       1.32930376         0.00000000       0.00000000       0.00000000        -0.08452900      -0.03436300       0.00887300         13
Al         6.90763290       6.16312381       0.50806491         0.00000000       0.00000000       0.00000000         0.20968400       0.11950300      -0.01909300         13
Al         3.39126274       1.60142487       0.59599303         0.00000000       0.00000000       0.00000000         0.11323600       0.15968600      -0.04218500         13
Al         9.88557599       4.48976341       0.33021326         0.00000000       0.00000000       0.00000000        -0.23839100      -0.24482600       0.05240500         13
2
pbc=[T, T, T] config_type=high_entropy dft_energy=-1.72111263 Lattice="5.81980100 0.00000000 0.00000000 0.05299400 1.97391800 0.00000000 0.26810100 0.53819800 2.44201100" Properties=species:S:1:pos:R:3:velocities:R:3:dft_forces:R:3:Z:I:1
Al         3.69429836       1.23784892       1.36473602         0.00000000       0.00000000       0.00000000        -4.52376000       0.08465100       0.66898400         13
Al         5.75599962       2.15866281       1.04324911         0.00000000       0.00000000       0.00000000         4.52376000      -0.08465100      -0.66898400         13
2
pbc=[T, T, T] config_type=high_entropy dft_energy=-5.99598826 Lattice="9.54656200 0.00000000 0.00000000 0.35146000 2.56540000 0.00000000 0.01303600 0.28517800 2.67772400" Properties=species:S:1:pos:R:3:velocities:R:3:dft_forces:R:3:Z:I:1
Al         2.88879391       2.11186074       1.10313476         0.00000000       0.00000000       0.00000000         0.54234800      -0.07217300       0.00858400         13
Al         6.03364540       0.13612711       1.29233232         0.00000000       0.00000000       0.00000000        -0.54234800       0.07217300      -0.00858400         13
6
pbc=[T, T, T] config_type=high_entropy dft_energy=-20.25294108 Lattice="6.92333500 0.00000000 0.00000000 2.16380200 7.15264800 0.00000000 0.08486300 0.55580900 2.40061400" Properties=species:S:1:pos:R:3:velocities:R:3:dft_forces:R:3:Z:I:1
Al         3.52457652       1.68891160       1.63818622         0.00000000       0.00000000       0.00000000         0.07920700      -0.28222600       0.02824300         13
Al         3.23172934       4.46965532       2.42590314         0.00000000       0.00000000       0.00000000        -0.33191100       0.14932200       0.00921100         13
Al         8.50018261       7.98925028       0.44523272         0.00000000       0.00000000       0.00000000        -0.15799400      -0.13047600       0.09189300         13
Al         5.72258381       3.58326555       1.29178938         0.00000000       0.00000000       0.00000000         0.46916400      -0.25884400      -0.04794200         13
Al         7.53588661       5.84193885       2.12365992         0.00000000       0.00000000       0.00000000         0.02364800      -0.02664400      -0.01715300         13
Al         4.83182128       6.13246561       0.88509925         0.00000000       0.00000000       0.00000000        -0.08211400       0.54886800      -0.06425200         13
2
pbc=[T, T, T] config_type=high_entropy dft_energy=-0.27840238 Lattice="4.95119300 0.00000000 0.00000000 1.60322000 3.88730900 0.00000000 0.22044700 0.13865200 1.83730100" Properties=species:S:1:pos:R:3:velocities:R:3:dft_forces:R:3:Z:I:1
Al         5.55069240       1.85446487       0.46550427         0.00000000       0.00000000       0.00000000         0.18743600      -0.05681900      -0.01862400         13
Al         3.23067192       3.19861741       1.37431561         0.00000000       0.00000000       0.00000000        -0.18743600       0.05681900       0.01862400         13
10
pbc=[T, T, T] config_type=high_entropy dft_energy=-36.79478459 Lattice="12.63986800 0.00000000 0.00000000 1.36909600 4.75650400 0.00000000 1.20188200 -0.10903600 2.83736300" Properties=species:S:1:pos:R:3:velocities:R:3:dft_forces:R:3:Z:I:1
Al         3.21313937       4.22872030       2.36267680         0.00000000       0.00000000       0.00000000        -0.30860000       0.01815500       0.10642500         13
Al         8.77236287       1.31876775      -0.14634172         0.00000000       0.00000000       0.00000000         0.03353700      -0.01857000      -0.01661300         13
Al         5.49508056       2.96921959       2.99811042         0.00000000       0.00000000       0.00000000         0.31977600      -0.00436700      -0.09137800         13
Al         1.93536078       1.90643638       0.95600582         0.00000000       0.00000000       0.00000000        -0.33192000       0.00123600       0.09965300         13
Al         5.58762073       5.40668202       1.59452860         0.00000000       0.00000000       0.00000000         0.29337000      -0.01901300      -0.10713800         13
Al         6.99626100       0.91344749       2.13938887         0.00000000       0.00000000       0.00000000         0.40290600      -0.12105700      -0.17768900         13
Al         7.07731565       3.34970448       0.71833639         0.00000000       0.00000000       0.00000000         0.39243200      -0.14456000      -0.17578500         13
Al        11.78039861       1.63395868       0.39990865         0.00000000       0.00000000       0.00000000        -0.39942100       0.12038000       0.18561100         13
Al        10.05706692       3.63962649       1.27176085         0.00000000       0.00000000       0.00000000         0.03299100       0.00868900      -0.02267000         13
Al         0.42791227       3.95235602       1.81115902         0.00000000       0.00000000       0.00000000        -0.43507200       0.15910600       0.19958500         13
4
pbc=[T, T, T] config_type=high_entropy dft_energy=-13.13009197 Lattice="9.35265000 0.00000000 0.00000000 0.92691200 4.02836100 0.00000000 0.52298100 0.90882200 2.32781500" Properties=species:S:1:pos:R:3:velocities:R:3:dft_forces:R:3:Z:I:1
Al         8.27168225       2.00889515       2.44916928         0.00000000       0.00000000       0.00000000         0.04509900       0.08555500      -0.01195300         13
Al         3.18490156       0.61503300       1.73278697         0.00000000       0.00000000       0.00000000        -0.05149900      -0.37981300       0.09299800         13
Al         6.15365110       4.45578470      -0.27104946         0.00000000       0.00000000       0.00000000        -0.13460600      -0.03271000       0.03760500         13
Al        10.32654323       1.65158680       0.56561886         0.00000000       0.00000000       0.00000000         0.14100600       0.32696800      -0.11865000         13
3
pbc=[T, T, T] config_type=high_entropy dft_energy=-8.41355542 Lattice="9.33537900 0.00000000 0.00000000 1.05566900 4.13272900 0.00000000 0.52508800 0.75632800 2.06371200" Properties=species:S:1:pos:R:3:velocities:R:3:dft_forces:R:3:Z:I:1
Al        10.59957116       2.37233036       1.06771237         0.00000000       0.00000000       0.00000000        -0.09627000      -0.18085600      -0.35758200         13
Al         8.12489801       0.65450627       0.72297775         0.00000000       0.00000000       0.00000000        -0.03188200       0.23892200       0.36542800         13
Al         6.91166952       3.18883522       1.16181742         0.00000000       0.00000000       0.00000000         0.12815200      -0.05806600      -0.00784700         13
2
pbc=[T, T, T] config_type=high_entropy dft_energy=-4.96714356 Lattice="8.44248400 0.00000000 0.00000000 0.45001500 3.58756800 0.00000000 0.68071800 0.30093300 2.13798000" Properties=species:S:1:pos:R:3:velocities:R:3:dft_forces:R:3:Z:I:1
Al         5.77195370       3.55956910      -0.15760741         0.00000000       0.00000000       0.00000000        -0.42342500       0.07885000       0.10543200         13
Al         2.30424227       0.71701723       1.73430121         0.00000000       0.00000000       0.00000000         0.42342500      -0.07885000      -0.10543200         13
2
pbc=[T, T, T] config_type=high_entropy dft_energy=0.97565293 Lattice="5.54597500 0.00000000 0.00000000 0.52630800 6.00539700 0.00000000 0.68987500 -0.04191700 1.70149300" Properties=species:S:1:pos:R:3:velocities:R:3:dft_forces:R:3:Z:I:1
Al         2.31361041       1.26015426       1.03310854         0.00000000       0.00000000       0.00000000         0.02565800      -0.53711200      -0.03251200         13
Al         5.00100226      -0.33613211       1.04088316         0.00000000       0.00000000       0.00000000        -0.02565800       0.53711200       0.03251200         13
2
pbc=[T, T, T] config_type=high_entropy dft_energy=-5.13700833 Lattice="4.13756000 0.00000000 0.00000000 1.65386200 4.40124000 0.00000000 0.63518700 0.50655000 2.22846100" Properties=species:S:1:pos:R:3:velocities:R:3:dft_forces:R:3:Z:I:1
Al         1.34799811       1.93248536       1.69341960         0.00000000       0.00000000       0.00000000         0.20299100       0.40419000       0.22481000         13
Al         1.79696205       3.81163369       0.40582877         0.00000000       0.00000000       0.00000000        -0.20299100      -0.40419000      -0.22481000         13
2
pbc=[T, T, T] config_type=high_entropy dft_energy=-5.46473369 Lattice="4.70186300 0.00000000 0.00000000 1.83634600 5.08388000 0.00000000 0.39765300 0.32255200 2.19893600" Properties=species:S:1:pos:R:3:velocities:R:3:dft_forces:R:3:Z:I:1
Al         0.93981669       0.99956022       0.25184459         0.00000000       0.00000000       0.00000000         0.19172500       0.33263500      -0.09920800         13
Al         3.30204287       3.04118521       0.33303723         0.00000000       0.00000000       0.00000000        -0.19172500      -0.33263500       0.09920800         13
7
pbc=[T, T, T] config_type=high_entropy dft_energy=-22.17369529 Lattice="9.63524700 0.00000000 0.00000000 3.52144400 8.16596000 0.00000000 0.91248300 0.28183400 2.44890100" Properties=species:S:1:pos:R:3:velocities:R:3:dft_forces:R:3:Z:I:1
Al         0.64019728      -0.22570201       1.47355024         0.00000000       0.00000000       0.00000000        -0.02956700       0.02243300      -0.04042300         13
Al        10.73151593       7.50471007       0.91578018         0.00000000       0.00000000       0.00000000         0.23163100       0.05978900      -0.11064900         13
Al        11.18978382       3.58766018      -0.57265063         0.00000000       0.00000000       0.00000000        -0.06279900      -0.02636200       0.02645600         13
Al         3.56009193       0.19336464       1.84440734         0.00000000       0.00000000       0.00000000        -0.11553400      -0.07066500       0.09168300         13
Al         5.09801327       1.33234745      -0.27929143         0.00000000       0.00000000       0.00000000         0.17763200       0.17375700      -0.02685800         13
Al         9.26068966       6.28423609       2.98780368         0.00000000       0.00000000       0.00000000        -0.19469700      -0.05939800       0.00428000         13
Al         6.70370658       3.71387968       0.04071058         0.00000000       0.00000000       0.00000000        -0.00666600      -0.09955300       0.05551100         13
8
pbc=[T, T, T] config_type=high_entropy dft_energy=-26.33528684 Lattice="7.49337100 0.00000000 0.00000000 0.77603700 7.61667000 0.00000000 0.06698700 0.05316800 2.34554300" Properties=species:S:1:pos:R:3:velocities:R:3:dft_forces:R:3:Z:I:1
Al         4.03733566       4.26115169      -0.07078217         0.00000000       0.00000000       0.00000000        -0.26800000       0.34577000      -0.01332300         13
Al         5.07770826       6.65786918       1.08539720         0.00000000       0.00000000       0.00000000        -0.38400400      -0.01224400       0.00539700         13
Al         1.59717791       3.30944760       1.07651710         0.00000000       0.00000000       0.00000000         0.16029400       0.01572200       0.05145300         13
Al         6.23832480       2.94801204       1.04912054         0.00000000       0.00000000       0.00000000        -0.21609400      -0.19574700       0.02609700         13
Al         3.54408165       1.53041866       2.22837598         0.00000000       0.00000000       0.00000000        -0.09429600      -0.26877400      -0.00035800         13
Al         1.14519775      -0.86195061       1.04814068         0.00000000       0.00000000       0.00000000         0.41719200      -0.05548600      -0.04868200         13
Al         7.29051196       5.29449729       2.23207606         0.00000000       0.00000000       0.00000000         0.18795300      -0.26676600      -0.02362700         13
Al         7.23050967       8.07853392       2.22718676         0.00000000       0.00000000       0.00000000         0.19695500       0.43752600       0.00304300         13
3
pbc=[T, T, T] config_type=high_entropy dft_energy=-9.85835520 Lattice="8.32931300 0.00000000 0.00000000 0.71838800 2.35202800 0.00000000 1.26948600 0.81700300 3.14962000" Properties=species:S:1:pos:R:3:velocities:R:3:dft_forces:R:3:Z:I:1
Al         7.82163222       2.79753634       1.33857854         0.00000000       0.00000000       0.00000000        -0.33108600       0.11894000       0.11475700         13
Al         1.32433438       0.98011926       0.33654992         0.00000000       0.00000000       0.00000000        -0.37416900       0.10530700       0.19301700         13
Al         4.37663624       2.54467426       1.58437341         0.00000000       0.00000000       0.00000000         0.70525500      -0.22424700      -0.30777400         13
3
pbc=[T, T, T] config_type=high_entropy dft_energy=-9.52870016 Lattice="12.18026700 0.00000000 0.00000000 1.38469800 2.46360300 0.00000000 1.52274700 0.20985800 2.85153200" Properties=species:S:1:pos:R:3:velocities:R:3:dft_forces:R:3:Z:I:1
Al        12.45557415       1.63958407       2.97916614         0.00000000       0.00000000       0.00000000         0.84687100      -0.65680200      -0.65878200         13
Al        10.61645044       3.20683539       1.98445476         0.00000000       0.00000000       0.00000000        -0.05056400       0.01960700       0.03251100         13
Al         7.37407961       2.30801857       0.99360230         0.00000000       0.00000000       0.00000000        -0.79630700       0.63719500       0.62627100         13
3
pbc=[T, T, T] config_type=high_entropy dft_energy=-10.01839154 Lattice="9.85796900 0.00000000 0.00000000 0.21501000 2.75853000 0.00000000 0.83126100 0.77138800 2.67732400" Properties=species:S:1:pos:R:3:velocities:R:3:dft_forces:R:3:Z:I:1
Al         9.74529692       1.64042729       2.48779516         0.00000000       0.00000000       0.00000000        -0.03021600      -0.10173700      -0.06484400         13
Al        12.10498965       2.76678652       0.58857742         0.00000000       0.00000000       0.00000000        -0.28948200       0.07556200       0.12031900         13
Al         6.92615714       3.12418758       2.14176321         0.00000000       0.00000000       0.00000000         0.31969700       0.02617500      -0.05547500         13
2
pbc=[T, T, T] config_type=high_entropy dft_energy=-6.39988962 Lattice="9.06812800 0.00000000 0.00000000 0.23480900 2.46248700 0.00000000 1.18241200 0.59005000 2.31091000" Properties=species:S:1:pos:R:3:velocities:R:3:dft_forces:R:3:Z:I:1
Al        -0.19834868       1.95310892       0.40159817         0.00000000       0.00000000       0.00000000         0.49520700       0.03182200      -0.18136500         13
Al         2.67251894       0.42930842       0.09437341         0.00000000       0.00000000       0.00000000        -0.49520700      -0.03182200       0.18136500         13
2
pbc=[T, T, T] config_type=high_entropy dft_energy=0.36869980 Lattice="4.64660000 0.00000000 0.00000000 1.21238700 4.62801100 0.00000000 0.67858800 0.62800200 1.60209800" Properties=species:S:1:pos:R:3:velocities:R:3:dft_forces:R:3:Z:I:1
Al         4.55629017       1.42373305       0.77888415         0.00000000       0.00000000       0.00000000         1.02772900      -0.64191000      -0.26476200         13
Al         4.30547604       3.91572125       1.03158710         0.00000000       0.00000000       0.00000000        -1.02772900       0.64191000       0.26476200         13
6
pbc=[T, T, T] config_type=high_entropy dft_energy=-18.50618968 Lattice="6.89081400 0.00000000 0.00000000 2.88902800 6.75048400 0.00000000 0.03907000 0.37466500 2.27180700" Properties=species:S:1:pos:R:3:velocities:R:3:dft_forces:R:3:Z:I:1
Al         5.27433348       6.45856312       1.78699374         0.00000000       0.00000000       0.00000000         0.24255500       0.32093200       0.06215500         13
Al         7.84530877       5.97759615       1.27623931         0.00000000       0.00000000       0.00000000        -0.22901100      -0.23907600      -0.07844300         13
Al         1.80811746       2.65585431       1.00860551         0.00000000       0.00000000       0.00000000        -0.59973100       0.06004800      -0.38490800         13
Al         3.32934304       4.83609508       0.88498446         0.00000000       0.00000000       0.00000000         0.37100000      -0.39581300       0.01275600         13
Al         4.17521824       2.13258675       2.17714013         0.00000000       0.00000000       0.00000000         0.37318000       0.02522700       0.13740400         13
Al         6.83209198       0.71656031      -0.13349504         0.00000000       0.00000000       0.00000000        -0.15799300       0.22868200       0.25103600         13
8
pbc=[T, T, T] config_type=high_entropy dft_energy=-24.76545454 Lattice="7.06086800 0.00000000 0.00000000 0.89176900 7.53970700 0.00000000 0.80826800 0.48304400 3.54214300" Properties=species:S:1:pos:R:3:velocities:R:3:dft_forces:R:3:Z:I:1
Al         6.53496158       5.79248368       1.17918337         0.00000000       0.00000000       0.00000000        -0.64224300       0.42218900       0.32472600         13
Al         6.86883005       1.43221203       2.20845119         0.00000000       0.00000000       0.00000000         0.51408300       0.22245000      -0.14195400         13
Al         4.63873902       2.63003925       2.60644954         0.00000000       0.00000000       0.00000000        -0.00562100       0.04899900       0.08048800         13
Al         1.57779623       6.51446284       2.44772817         0.00000000       0.00000000       0.00000000         0.19782400      -0.34434400      -0.07830400         13
Al         2.40196072       3.86926045       2.90492117         0.00000000       0.00000000       0.00000000        -0.69101100       0.21481800       0.09242100         13
Al         5.86620481       4.33036143       3.96628613         0.00000000       0.00000000       0.00000000         0.25830100       0.73541800      -0.51475300         13
Al         2.91418660       6.65887795       0.15482690         0.00000000       0.00000000       0.00000000         0.54420300      -0.64733000      -0.27017400         13
Al         3.40309733       0.94107306       1.25206286         0.00000000       0.00000000       0.00000000        -0.17553700      -0.65219900       0.50755200         13
5
pbc=[T, T, T] config_type=high_entropy dft_energy=-14.08343166 Lattice="6.20399700 0.00000000 0.00000000 1.17643600 5.32725700 0.00000000 0.78489900 0.25813100 2.09522200" Properties=species:S:1:pos:R:3:velocities:R:3:dft_forces:R:3:Z:I:1
Al         4.03587848       1.47170640       1.29074916         0.00000000       0.00000000       0.00000000        -0.10959100      -0.71811800       0.07834500         13
Al         1.89643221       2.80568585       0.69630532         0.00000000       0.00000000       0.00000000        -0.23579300       0.88312600      -0.12325300         13
Al         3.58835182       4.80349352       0.99164778         0.00000000       0.00000000       0.00000000        -0.29196300       0.05136300       0.07908000         13
Al         5.71475770       3.38742425       1.59482562         0.00000000       0.00000000       0.00000000         0.54675600       1.70599800      -0.35549600         13
Al         6.57838254       1.04321313       1.58980830         0.00000000       0.00000000       0.00000000         0.09059200      -1.92236900       0.32132300         13
2
pbc=[T, T, T] config_type=high_entropy dft_energy=-6.03044783 Lattice="11.27957200 0.00000000 0.00000000 1.13303400 2.97636000 0.00000000 1.26908500 0.85933300 2.53551900" Properties=species:S:1:pos:R:3:velocities:R:3:dft_forces:R:3:Z:I:1
Al         3.59022216       3.17513418       2.66386174         0.00000000       0.00000000       0.00000000         0.50467400      -0.17172800      -0.18628900         13
Al         5.63603914       2.48811206       0.17451218         0.00000000       0.00000000       0.00000000        -0.50467400       0.17172800       0.18628900         13
2
pbc=[T, T, T] config_type=high_entropy dft_energy=-4.59816772 Lattice="4.36249300 0.00000000 0.00000000 0.18638000 3.78442300 0.00000000 1.33988400 0.44013400 5.16595800" Properties=species:S:1:pos:R:3:velocities:R:3:dft_forces:R:3:Z:I:1
Al         0.85374744       3.16080789      -0.10987573         0.00000000       0.00000000       0.00000000        -0.00394400       0.00427600      -0.00837600         13
Al         3.63872405       1.47411163       2.49528943         0.00000000       0.00000000       0.00000000         0.00394400      -0.00427600       0.00837600         13
6
pbc=[T, T, T] config_type=high_entropy dft_energy=-17.57726264 Lattice="14.32634000 0.00000000 0.00000000 1.00479300 3.04606000 0.00000000 0.35926200 -1.25096600 4.27192600" Properties=species:S:1:pos:R:3:velocities:R:3:dft_forces:R:3:Z:I:1
Al        11.27469278       2.66695623       3.15763149         0.00000000       0.00000000       0.00000000        -0.09789800       0.02109800       0.07567000         13
Al         4.23951448       3.26977349       4.86526873         0.00000000       0.00000000       0.00000000        -0.07910800      -0.06300800      -0.44952200         13
Al         5.98903769       1.07787053       3.01677443         0.00000000       0.00000000       0.00000000         0.03011700       0.07503600       0.47618800         13
Al        13.43775504       1.62182682       0.89134968         0.00000000       0.00000000       0.00000000         0.18422700       0.05515500       0.31282800         13
Al         8.53499791       1.83687117       5.00325788         0.00000000       0.00000000       0.00000000        -0.03465500      -0.06211900      -0.40438500         13
Al         1.66517017       2.41936501       2.88095592         0.00000000       0.00000000       0.00000000        -0.00268300      -0.02616200      -0.01077800         13
2
pbc=[T, T, T] config_type=high_entropy dft_energy=-0.02911292 Lattice="7.79569800 0.00000000 0.00000000 0.34905800 3.13538600 0.00000000 0.20252100 0.23111800 1.83866700" Properties=species:S:1:pos:R:3:velocities:R:3:dft_forces:R:3:Z:I:1
Al         3.68921627       2.06647150       1.93267118         0.00000000       0.00000000       0.00000000         0.53615600       0.09075400      -0.02691000         13
Al         6.67504924       2.62992034       1.24503901         0.00000000       0.00000000       0.00000000        -0.53615600      -0.09075400       0.02691000         13
19
pbc=[T, T, T] config_type=high_entropy dft_energy=-55.81093095 Lattice="10.80444700 0.00000000 0.00000000 3.38513800 7.55895800 0.00000000 1.05065100 3.66317600 7.09346200" Properties=species:S:1:pos:R:3:velocities:R:3:dft_forces:R:3:Z:I:1
Al         7.74612992      -1.82468371      -1.13455653         0.00000000       0.00000000       0.00000000         0.17308700      -0.08675300      -0.11406900         13
Al         7.79261082       5.99362471      -0.77160598         0.00000000       0.00000000       0.00000000         0.00267900       0.08545600      -0.05073500         13
Al         7.18013380       3.68231870       3.68102086         0.00000000       0.00000000       0.00000000        -0.02166100      -0.02317800      -0.02047500         13
Al         9.65444665       5.17180040       1.86698181         0.00000000       0.00000000       0.00000000        -0.01948000      -0.00066700       0.05626800         13
Al         8.16646956       6.81870264       4.63517354         0.00000000       0.00000000       0.00000000         0.00460800      -0.07030300      -0.04731700         13
Al         8.14999132       8.45664903       1.68101636         0.00000000       0.00000000       0.00000000        -0.02611600       0.01959200       0.01963100         13
Al         5.35663116       4.28234164       0.96442588         0.00000000       0.00000000       0.00000000        -0.06645700      -0.09067500      -0.01380800         13
Al         5.34832386       6.99184294       2.86195625         0.00000000       0.00000000       0.00000000        -0.07203400      -0.00084300       0.05797400         13
Al         3.65552629       3.35044085       3.77115967         0.00000000       0.00000000       0.00000000         0.11614600       0.06303500       0.05783600         13
Al        10.69818526       4.53195033       5.11256595         0.00000000       0.00000000       0.00000000        -0.06488200      -0.12620300       0.03935200         13
Al        13.36194033       6.48136253       4.61580485         0.00000000       0.00000000       0.00000000         0.09541700       0.06938900       0.06623800         13
Al        -1.07509205      -0.75140670       1.19438240         0.00000000       0.00000000       0.00000000         0.03081200       0.07142100      -0.03266200         13
Al         4.40869615       1.87430642      -1.26537259         0.00000000       0.00000000       0.00000000        -0.09342200       0.03358200      -0.04894900         13
Al        10.44882901       2.03341206       2.84608279         0.00000000       0.00000000       0.00000000        -0.05386600      -0.00371800       0.07921500         13
Al         4.77979405       8.95429103       5.50768250         0.00000000       0.00000000       0.00000000        -0.12801800      -0.02284500       0.04800800         13
Al         7.46416823       0.36348752       3.37511526         0.00000000       0.00000000       0.00000000         0.07781200       0.03166200      -0.08702000         13
Al         8.99420719       5.86782590       7.69901768         0.00000000       0.00000000       0.00000000        -0.08326800      -0.00071300       0.19486900         13
Al         1.97163176       3.52098983       0.88096714         0.00000000       0.00000000       0.00000000         0.11474300       0.06854300      -0.12741300         13
Al         1.68883792       0.40908233      -0.13414154         0.00000000       0.00000000       0.00000000         0.01390000      -0.01678300      -0.07694400         13
4
pbc=[T, T, T] config_type=high_entropy dft_energy=-6.66681724 Lattice="6.42760300 0.00000000 0.00000000 1.14833300 5.48726300 0.00000000 0.20190200 0.64477700 1.92685500" Properties=species:S:1:pos:R:3:velocities:R:3:dft_forces:R:3:Z:I:1
Al         4.68738577       1.61288104       1.42396241         0.00000000       0.00000000       0.00000000         0.08961900       0.01764600      -0.00226500         13
Al         2.70289810       2.25873573       0.35440867         0.00000000       0.00000000       0.00000000        -3.24017800       1.43891700      -0.10968900         13
Al         5.25218460       4.34540927       1.40386615         0.00000000       0.00000000       0.00000000        -0.03195200       0.01035000       0.01922000         13
Al         0.02560056       0.28416332       0.59426008         0.00000000       0.00000000       0.00000000         3.18251100      -1.46691300       0.09273400         13
2
pbc=[T, T, T] config_type=high_entropy dft_energy=-5.68579858 Lattice="9.49106600 0.00000000 0.00000000 0.99052600 2.25765900 0.00000000 1.42858400 -0.20992900 3.44929400" Properties=species:S:1:pos:R:3:velocities:R:3:dft_forces:R:3:Z:I:1
Al         6.85109552       1.29158066      -0.35801504         0.00000000       0.00000000       0.00000000        -0.59203400       0.23832300       0.28084200         13
Al         4.86073432       0.83850925       2.51401001         0.00000000       0.00000000       0.00000000         0.59203400      -0.23832300      -0.28084200         13
2
pbc=[T, T, T] config_type=high_entropy dft_energy=-5.53391446 Lattice="5.36956400 0.00000000 0.00000000 2.27487100 4.47115500 0.00000000 1.71714500 -0.33338500 3.14054000" Properties=species:S:1:pos:R:3:velocities:R:3:dft_forces:R:3:Z:I:1
Al         7.29790270       1.91519076       3.56316269         0.00000000       0.00000000       0.00000000        -0.07394200      -0.03343200      -0.03683400         13
Al         2.90437635       0.78368023       0.75354024         0.00000000       0.00000000       0.00000000         0.07394200       0.03343200       0.03683400         13
2
pbc=[T, T, T] config_type=high_entropy dft_energy=-6.80147960 Lattice="4.69301900 0.00000000 0.00000000 0.91310800 3.85404500 0.00000000 0.94243300 0.86588500 2.53519200" Properties=species:S:1:pos:R:3:velocities:R:3:dft_forces:R:3:Z:I:1
Al         5.93592440       3.43732803       1.47915284         0.00000000       0.00000000       0.00000000         0.02010300      -0.01204000      -0.00498300         13
Al         3.61473830       1.93345158       2.74515688         0.00000000       0.00000000       0.00000000        -0.02010300       0.01204000       0.00498300         13
3
pbc=[T, T, T] config_type=high_entropy dft_energy=-8.55176214 Lattice="6.26403200 0.00000000 0.00000000 0.99549300 6.61036200 0.00000000 0.62136700 0.90603800 2.58100800" Properties=species:S:1:pos:R:3:velocities:R:3:dft_forces:R:3:Z:I:1
Al         7.15743088       1.86258732       0.18124120         0.00000000       0.00000000       0.00000000         0.00870700      -0.00090500      -0.00077500         13
Al         4.57528801       3.95507073       1.36525656         0.00000000       0.00000000       0.00000000         0.09864000      -0.19352500       0.03777300         13
Al         4.02958809       0.63814727       1.35997938         0.00000000       0.00000000       0.00000000        -0.10734800       0.19443000      -0.03699700         13
2
pbc=[T, T, T] config_type=high_entropy dft_energy=-5.02839893 Lattice="6.48880800 0.00000000 0.00000000 3.24031400 6.08438200 0.00000000 1.03321300 0.51093300 2.09701500" Properties=species:S:1:pos:R:3:velocities:R:3:dft_forces:R:3:Z:I:1
Al         8.67399378       5.80702259       1.73885519         0.00000000       0.00000000       0.00000000         0.13893900      -0.06280700      -0.04787900         13
Al         2.38505142       2.25410306       1.15769702         0.00000000       0.00000000       0.00000000        -0.13893900       0.06280700       0.04787900         13
6
pbc=[T, T, T] config_type=high_entropy dft_energy=-13.90806556 Lattice="13.84937100 0.00000000 0.00000000 0.20716900 4.18074800 0.00000000 0.46687700 0.25543700 4.31887200" Properties=species:S:1:pos:R:3:velocities:R:3:dft_forces:R:3:Z:I:1
Al        15.25928942       2.96546780       2.89134412         0.00000000       0.00000000       0.00000000        -0.10113000       0.04127400       0.11706600         13
Al         6.24397466       2.81369821       2.87783063         0.00000000       0.00000000       0.00000000        -0.09502700      -0.01872600       0.06318700         13
Al         9.41073612       5.19739300       5.18538233         0.00000000       0.00000000       0.00000000         0.27392400       0.01324000       0.02976300         13
Al         3.26884806       0.54953063       0.16504468         0.00000000       0.00000000       0.00000000        -0.15140600      -0.01911900      -0.19244100         13
Al        12.94137900       0.71540896       0.80772509         0.00000000       0.00000000       0.00000000         0.03776300      -0.01044600       0.05123300         13
Al        11.07200695       2.91177633       2.85958284         0.00000000       0.00000000       0.00000000         0.03587600      -0.00622400      -0.06880800         13
3
pbc=[T, T, T] config_type=high_entropy dft_energy=-0.88067723 Lattice="5.07390400 0.00000000 0.00000000 1.11157500 5.29649100 0.00000000 0.62492600 0.51901300 1.69109700" Properties=species:S:1:pos:R:3:velocities:R:3:dft_forces:R:3:Z:I:1
Al         2.57490370       2.39012655       0.67295232         0.00000000       0.00000000       0.00000000        -0.00622800       0.00501500      -0.00113800         13
Al         5.11119542       2.39059868       0.67284130         0.00000000       0.00000000       0.00000000         0.00737000       0.00013600      -0.00167800         13
Al         3.12960317       5.03932425       0.67238047         0.00000000       0.00000000       0.00000000        -0.00114200      -0.00515000       0.00281500         13
3
pbc=[T, T, T] config_type=high_entropy dft_energy=-4.64201150 Lattice="6.93032100 0.00000000 0.00000000 1.70278800 7.65501900 0.00000000 0.72734700 -0.07021400 1.92111300" Properties=species:S:1:pos:R:3:velocities:R:3:dft_forces:R:3:Z:I:1
Al         1.49442119       0.48796651       0.50915104         0.00000000       0.00000000       0.00000000        -0.04776200      -0.15427200      -0.00934100         13
Al         4.86645558      -0.89475551       0.21151460         0.00000000       0.00000000       0.00000000         0.35725000      -0.08946900      -0.11397900         13
Al         2.14597216       4.18775624       0.16145631         0.00000000       0.00000000       0.00000000        -0.30948800       0.24374100       0.12332000         13
13
pbc=[T, T, T] config_type=high_entropy dft_energy=-44.22797403 Lattice="8.60284400 0.00000000 0.00000000 3.89278800 8.14575200 0.00000000 0.08126700 1.71541600 4.29368100" Properties=species:S:1:pos:R:3:velocities:R:3:dft_forces:R:3:Z:I:1
Al         9.41999392       4.33708127       0.00763281         0.00000000       0.00000000       0.00000000        -0.03504800      -0.14019800      -0.06665400         13
Al         9.00265930       6.84967225       1.35976565         0.00000000       0.00000000       0.00000000         0.06636100       0.12716500       0.07980900         13
Al        10.35695582       9.55960173       1.90728238         0.00000000       0.00000000       0.00000000        -0.00557400       0.00933600       0.15297300         13
Al         2.06302850      -1.17990070       1.21272581         0.00000000       0.00000000       0.00000000         0.02189300       0.11768400       0.08775100         13
Al         3.49554812       6.39191004       2.84901530         0.00000000       0.00000000       0.00000000         0.01291600      -0.02349300      -0.01932900         13
Al         5.14250633       3.31619196       3.81348535         0.00000000       0.00000000       0.00000000        -0.02738400      -0.00274100      -0.16486400         13
Al         7.93191233       1.00185623       4.42657080         0.00000000       0.00000000       0.00000000        -0.01561400       0.02737400       0.11241100         13
Al         6.30156782       4.40702501      -0.11752475         0.00000000       0.00000000       0.00000000        -0.06585300      -0.11304000      -0.08756600         13
Al         3.62403184       3.66249723       1.26889676         0.00000000       0.00000000       0.00000000         0.02808400      -0.04524900      -0.10458100         13
Al         2.13494573       3.37839836       3.72763645         0.00000000       0.00000000       0.00000000         0.04879000      -0.02679000      -0.15386500         13
Al         7.87957073       4.07242379       2.59794270         0.00000000       0.00000000       0.00000000         0.03386600       0.01379300      -0.05744500         13
Al         3.64141894       0.80046457       2.92027348         0.00000000       0.00000000       0.00000000        -0.02164100       0.00329500       0.03827100         13
Al         0.78633075       1.45315540       1.88223490         0.00000000       0.00000000       0.00000000        -0.04079600       0.05286300       0.18309000         13
4
pbc=[T, T, T] config_type=high_entropy dft_energy=-14.08861107 Lattice="6.05669600 0.00000000 0.00000000 2.41862000 5.69008500 0.00000000 0.85340100 0.96433100 2.21062200" Properties=species:S:1:pos:R:3:velocities:R:3:dft_forces:R:3:Z:I:1
Al         4.68752926       6.07951670       1.82477957         0.00000000       0.00000000       0.00000000        -0.24460300       0.22626600      -0.12874600         13
Al         5.19502675       0.63162674       1.05916895         0.00000000       0.00000000       0.00000000         0.09778000       0.02475800       0.05772900         13
Al         5.81660552       3.64330110       1.15272481         0.00000000       0.00000000       0.00000000         0.26150200      -0.25860900      -0.06886200         13
Al         2.85971024       3.21571739       1.60353041         0.00000000       0.00000000       0.00000000        -0.11467900       0.00758500       0.13987800         13
2
pbc=[T, T, T] config_type=high_entropy dft_energy=-5.31149994 Lattice="8.86287000 0.00000000 0.00000000 0.54396600 2.56825400 0.00000000 0.12523800 0.80016200 2.03461500" Properties=species:S:1:pos:R:3:velocities:R:3:dft_forces:R:3:Z:I:1
Al         1.79766429       2.10798235       1.53353131         0.00000000       0.00000000       0.00000000        -0.20321000      -0.02397800      -0.04495400         13
Al         7.80657730       1.38488295       0.84845868         0.00000000       0.00000000       0.00000000         0.20321000       0.02397800       0.04495400         13
6
pbc=[T, T, T] config_type=high_entropy dft_energy=-15.27616718 Lattice="3.38861300 0.00000000 0.00000000 0.54290300 4.62204400 0.00000000 -1.23009400 0.70403200 5.12315800" Properties=species:S:1:pos:R:3:velocities:R:3:dft_forces:R:3:Z:I:1
Al         3.39841455       3.12862425       1.20667770         0.00000000       0.00000000       0.00000000         0.03111000       0.01611700       0.10060200         13
Al         3.12914347       0.81741418       1.20564603         0.00000000       0.00000000       0.00000000        -0.02555600       0.01181100       0.07933500         13
Al         1.56212473       2.89595309      -0.48643805         0.00000000       0.00000000       0.00000000        -0.05254100      -0.02971300      -0.08380300         13
Al         1.58910412       1.04892900       2.91837898         0.00000000       0.00000000       0.00000000         0.03198100       0.07272400      -0.01982000         13
Al         1.86169416       3.36451754       2.91983128         0.00000000       0.00000000       0.00000000         0.02063700      -0.09193300       0.00569700         13
Al         3.44051009       1.28921886       4.62836813         0.00000000       0.00000000       0.00000000        -0.00563100       0.02099300      -0.08201100         13
2
pbc=[T, T, T] config_type=high_entropy dft_energy=4.41670974 Lattice="4.48390800 0.00000000 0.00000000 0.01960200 4.58724500 0.00000000 0.74617000 0.41883500 1.55827600" Properties=species:S:1:pos:R:3:velocities:R:3:dft_forces:R:3:Z:I:1
Al         1.68739453      -0.16215501      -0.23677503         0.00000000       0.00000000       0.00000000         0.04349700       0.01633500      -0.02897300         13
Al         4.69605961       4.83911129       1.32180300         0.00000000       0.00000000       0.00000000        -0.04349700      -0.01633500       0.02897300         13
3
pbc=[T, T, T] config_type=high_entropy dft_energy=-7.25807192 Lattice="10.12823300 0.00000000 0.00000000 0.25603900 2.12975100 0.00000000 0.82655600 -0.13080600 3.59840200" Properties=species:S:1:pos:R:3:velocities:R:3:dft_forces:R:3:Z:I:1
Al        10.87506144       2.74295598       2.04345590         0.00000000       0.00000000       0.00000000         0.25000100       0.32358500      -0.06177500         13
Al         3.47536812       3.56060630       3.50805226         0.00000000       0.00000000       0.00000000        -0.42510300       0.00170900       0.01964900         13
Al         7.82437090       0.55010589       0.55775120         0.00000000       0.00000000       0.00000000         0.17510200      -0.32529400       0.04212700         13
3
pbc=[T, T, T] config_type=high_entropy dft_energy=-8.61729725 Lattice="5.27447300 0.00000000 0.00000000 0.53404000 4.71222400 0.00000000 0.15612700 2.21077500 3.84094700" Properties=species:S:1:pos:R:3:velocities:R:3:dft_forces:R:3:Z:I:1
Al         2.13178140       3.85043376       1.06974716         0.00000000       0.00000000       0.00000000        -0.01084900       0.00797600       0.00995700         13
Al         0.59575054       6.18914935       2.34488825         0.00000000       0.00000000       0.00000000         0.00820000      -0.00682000       0.00116900         13
Al         3.82434462       3.77657964       3.63848182         0.00000000       0.00000000       0.00000000         0.00264900      -0.00115600      -0.01112600         13
4
pbc=[T, T, T] config_type=high_entropy dft_energy=-14.30384938 Lattice="12.08490200 0.00000000 0.00000000 1.03499200 2.37135000 0.00000000 1.35332000 0.06583600 2.35588100" Properties=species:S:1:pos:R:3:velocities:R:3:dft_forces:R:3:Z:I:1
Al         1.66039448       2.68682108       1.40618521         0.00000000       0.00000000       0.00000000         0.06122500       0.03477600       0.06239100         13
Al         5.58003555       1.12807236      -1.00025879         0.00000000       0.00000000       0.00000000         0.04587400      -0.02576900      -0.04907700         13
Al        11.80488475       2.16458320       3.65873160         0.00000000       0.00000000       0.00000000        -0.04049400       0.02054800       0.05291700         13
Al         3.63348913       0.58705689       1.25622810         0.00000000       0.00000000       0.00000000        -0.06660600      -0.02955600      -0.06623100         13
14
pbc=[T, T, T] config_type=high_entropy dft_energy=-39.76654946 Lattice="16.22567600 0.00000000 0.00000000 0.45504700 6.14230200 0.00000000 0.49031300 1.18102300 3.97571100" Properties=species:S:1:pos:R:3:velocities:R:3:dft_forces:R:3:Z:I:1
Al        10.67203888       0.82483157       1.87330591         0.00000000       0.00000000       0.00000000         0.03888000      -0.21077600      -0.02020800         13
Al         4.53611855       2.93557155       1.77722365         0.00000000       0.00000000       0.00000000        -1.06814800      -1.38095400       0.28858800         13
Al         5.19563253       3.28070043      -0.65961642         0.00000000       0.00000000       0.00000000         0.95124500      -1.74651400      -1.14469400         13
Al         5.64518073       0.71213286       2.53509890         0.00000000       0.00000000       0.00000000         0.50788400       0.61668700      -0.16960700         13
Al         1.73851308       0.56597880       1.09434225         0.00000000       0.00000000       0.00000000        -0.50581900       0.75347400       0.05603600         13
Al         6.88248909       2.27151077       0.80486588         0.00000000       0.00000000       0.00000000         1.46175300      -1.15512500       0.46437200         13
Al         1.36827728       4.80445791      -0.48219980         0.00000000       0.00000000       0.00000000        -1.25547200      -0.26019100       0.17372700         13
Al         8.71528475       4.14631843       0.88443956         0.00000000       0.00000000       0.00000000         1.14998200       0.20343300      -0.06216800         13
Al        14.28915525       0.38482938       1.49577502         0.00000000       0.00000000       0.00000000         0.17267100      -0.03712100      -0.03720400         13
Al         2.75963289       2.58305314      -0.13521007         0.00000000       0.00000000       0.00000000        -1.24294600      -0.35598700      -0.00549000         13
Al         6.20780230       4.83209567       0.96464950         0.00000000       0.00000000       0.00000000         1.66802500       1.17882900      -0.24656900         13
Al         3.81962746       4.89555621       0.26903683         0.00000000       0.00000000       0.00000000        -2.06562200       2.32077100       0.70391900         13
Al        12.67425622       3.71459708       0.49305101         0.00000000       0.00000000       0.00000000         0.13892100       0.10594900      -0.03857200         13
Al        -0.25410877       3.29219053       2.51124160         0.00000000       0.00000000       0.00000000         0.04864500      -0.03247500       0.03787100         13
4
pbc=[T, T, T] config_type=high_entropy dft_energy=-12.17436817 Lattice="6.57186200 0.00000000 0.00000000 -3.23140200 5.88680500 0.00000000 0.97891000 1.31547000 2.92117100" Properties=species:S:1:pos:R:3:velocities:R:3:dft_forces:R:3:Z:I:1
Al         7.22959805      -0.14719105       1.12354688         0.00000000       0.00000000       0.00000000         0.00296400      -0.00220100       0.00085900         13
Al         2.34344231       2.80247675       1.13379783         0.00000000       0.00000000       0.00000000         0.00433200      -0.00013600       0.00235300         13
Al         7.29571729       5.73336030       1.23241837         0.00000000       0.00000000       0.00000000        -0.00515200      -0.00067300       0.00163700         13
Al         5.63022091       2.79629964       1.21746219         0.00000000       0.00000000       0.00000000        -0.00214400       0.00301100      -0.00484900         13
3
pbc=[T, T, T] config_type=high_entropy dft_energy=-8.14649537 Lattice="10.37431200 0.00000000 0.00000000 0.38242900 4.31234800 0.00000000 0.13659800 0.30599800 2.67430900" Properties=species:S:1:pos:R:3:velocities:R:3:dft_forces:R:3:Z:I:1
Al         8.25500183       0.39442364       1.33298687         0.00000000       0.00000000       0.00000000         0.74141400      -0.02939800      -0.03768200         13
Al         0.26543270       2.34399711       0.06411030         0.00000000       0.00000000       0.00000000        -0.14966400       0.14919900      -0.00707100         13
Al         3.36029755       3.50892264      -0.23143903         0.00000000       0.00000000       0.00000000        -0.59175100      -0.11980000       0.04475300         13
8
pbc=[T, T, T] config_type=high_entropy dft_energy=-25.16387682 Lattice="4.47838700 0.00000000 0.00000000 0.39014800 7.86487300 0.00000000 -1.83714800 0.89506100 4.57003000" Properties=species:S:1:pos:R:3:velocities:R:3:dft_forces:R:3:Z:I:1
Al         1.92623203       2.42733662       0.69913697         0.00000000       0.00000000       0.00000000         0.24551300       2.00822800      -0.94683500         13
Al         4.58135460       7.07712412       2.58014165         0.00000000       0.00000000       0.00000000         0.12889700      -1.86095700       0.68436400         13
Al         4.47457607       4.34156697       2.97234936         0.00000000       0.00000000       0.00000000        -0.18463400       1.41817500      -0.38606300         13
Al         4.48440766       8.05305169       0.31289099         0.00000000       0.00000000       0.00000000        -0.22006800      -2.15225000       0.46055400         13
Al         6.86735225       8.35916668       2.24674173         0.00000000       0.00000000       0.00000000        -0.23369600      -1.32792000      -0.13759700         13
Al         4.18445938       2.22820362       1.60235691         0.00000000       0.00000000       0.00000000        -0.14743900       1.24052700       0.14612800         13
Al         6.61940453       2.85591803       3.22261118         0.00000000       0.00000000       0.00000000         0.33441700       1.98413400       0.17876400         13
Al         4.46666658       1.36774004       3.86306229         0.00000000       0.00000000       0.00000000         0.07701000      -1.30993600       0.00068400         13
7
pbc=[T, T, T] config_type=high_entropy dft_energy=-23.08695815 Lattice="8.88324000 0.00000000 0.00000000 2.60330900 7.48075900 0.00000000 0.92184500 0.59268700 2.18054900" Properties=species:S:1:pos:R:3:velocities:R:3:dft_forces:R:3:Z:I:1
Al         7.70980289       7.75458976       2.46002858         0.00000000       0.00000000       0.00000000        -0.04257700      -0.00870300       0.09249600         13
Al         6.38299610       2.00817180       0.12613441         0.00000000       0.00000000       0.00000000         0.14836200      -0.26047300      -0.00281200         13
Al         4.50798948       8.57829344       1.57994286         0.00000000       0.00000000       0.00000000        -0.16559800      -0.07137300      -0.16642600         13
Al         3.92973390       2.91706214       0.89859006         0.00000000       0.00000000       0.00000000        -0.13642600       0.11322600       0.06462800         13
Al        10.40611309       7.31553979       1.39008705         0.00000000       0.00000000       0.00000000         0.25922200      -0.02678700      -0.01318000         13
Al         8.69892015       4.86128709       1.29776589         0.00000000       0.00000000       0.00000000        -0.07345600       0.32040200       0.02734000         13
Al         4.29587672       5.76186043       1.22322078         0.00000000       0.00000000       0.00000000         0.01047300      -0.06629300      -0.00204700         13
24
pbc=[T, T, T] config_type=high_entropy dft_energy=-69.69779994 Lattice="15.12698100 0.00000000 0.00000000 1.21146900 3.81928000 0.00000000 2.67872000 -1.86461800 6.05217500" Properties=species:S:1:pos:R:3:velocities:R:3:dft_forces:R:3:Z:I:1
Al         6.86868310       4.60513989       3.83431345         0.00000000       0.00000000       0.00000000         0.35270800      -0.31300100      -0.52695700         13
Al         1.60262690      -0.16514415       1.27228981         0.00000000       0.00000000       0.00000000        -7.62186400       5.29886600       8.65723100         13
Al         9.89515291       3.87424290       2.86187432         0.00000000       0.00000000       0.00000000        -0.00026500      -0.08694900      -0.31930700         13
Al         5.79112035       2.87144713       5.44862819         0.00000000       0.00000000       0.00000000         0.16994300       1.56531500      -2.19366200         13
Al        17.90161777       3.52718251       6.02520096         0.00000000       0.00000000       0.00000000         0.37905000      -0.61545700       0.40339200         13
Al         3.31299193       1.22986216       4.99211561         0.00000000       0.00000000       0.00000000         0.26502600       0.35200900       0.99130700         13
Al        12.30931004       2.53807962       3.09880217         0.00000000       0.00000000       0.00000000         0.30837100      -0.27313200       0.55502000         13
Al         3.96170326       0.85503058       1.85267169         0.00000000       0.00000000       0.00000000         0.49414200      -1.66916600       0.80110900         13
Al        16.32784419       4.24821886       3.49987553         0.00000000       0.00000000       0.00000000        -0.15530200      -0.08925200      -0.07086300         13
Al         8.09779456       2.32289758       4.17025630         0.00000000       0.00000000       0.00000000        -0.14424900      -0.36266200       1.00054000         13
Al         1.91521352       1.86703170       2.91087601         0.00000000       0.00000000       0.00000000        -0.13335300       0.01730700      -0.20058800         13
Al         9.72995399       0.31677218      -0.38808983         0.00000000       0.00000000       0.00000000        -5.71020100       0.74066300       0.24453000         13
Al         9.33106886       2.53584346       0.80349808         0.00000000       0.00000000       0.00000000        -3.40715200       0.03720500       0.45599200         13
Al         7.16493196       3.85905591       0.57163921         0.00000000       0.00000000       0.00000000        -1.33233700      -5.56827700       3.85158600         13
Al        14.70728774       2.73622042       2.18498163         0.00000000       0.00000000       0.00000000         0.02466000       0.33672800      -1.16063200         13
Al         4.22392701       2.97424665       3.39589113         0.00000000       0.00000000       0.00000000         0.10629600       0.28423300       0.08155800         13
Al        14.02322480       3.86660324       4.44011816         0.00000000       0.00000000       0.00000000         0.68326700       4.89263800      -4.02886700         13
Al        10.08643822       3.54472619       5.39949224         0.00000000       0.00000000       0.00000000         0.99625500       5.90950500      -3.72609500         13
Al        11.70602722       5.05906943       4.25880203         0.00000000       0.00000000       0.00000000         0.52691500       0.07828400       0.03983300         13
Al        15.43091546       4.36031087       6.54901253         0.00000000       0.00000000       0.00000000         6.22822900      -0.46711900      -0.78593700         13
Al        17.07755444       5.94901058       5.27408146         0.00000000       0.00000000       0.00000000         2.45420300      -0.17332600      -0.20118600         13
Al         7.02723268       1.83770033       1.95258947         0.00000000       0.00000000       0.00000000        -0.50078900       0.36151400      -0.27184800         13
Al        11.05617714       0.84433199       1.71221142         0.00000000       0.00000000       0.00000000        -0.82551100      -4.97779600       3.90646100         13
Al         7.74245532       4.41664337       6.29761746         0.00000000       0.00000000       0.00000000         6.84195700      -5.27813200      -7.50261800         13
2
pbc=[T, T, T] config_type=high_entropy dft_energy=-6.08982007 Lattice="5.06188400 0.00000000 0.00000000 0.33488100 4.71489200 0.00000000 1.18607400 0.09096600 2.09302400" Properties=species:S:1:pos:R:3:velocities:R:3:dft_forces:R:3:Z:I:1
Al         2.29720743       3.95602466       1.05879151         0.00000000       0.00000000       0.00000000        -0.19300600       0.06441300       0.10866400         13
Al         3.52017768       1.59641989       1.66223543         0.00000000       0.00000000       0.00000000         0.19300600      -0.06441300      -0.10866400         13
3
pbc=[T, T, T] config_type=high_entropy dft_energy=-8.46418131 Lattice="9.61257300 0.00000000 0.00000000 0.18288600 3.72302000 0.00000000 0.50964500 0.91273600 2.02227300" Properties=species:S:1:pos:R:3:velocities:R:3:dft_forces:R:3:Z:I:1
Al         7.04299825       1.69209246       0.76532224         0.00000000       0.00000000       0.00000000         0.01555200      -0.00568300      -0.02065700         13
Al         3.91894918       4.01300420       0.58134350         0.00000000       0.00000000       0.00000000         0.00014700       0.05190200       0.05536100         13
Al         0.76330312       2.55820437       0.99267255         0.00000000       0.00000000       0.00000000        -0.01569900      -0.04621900      -0.03470400         13
4
pbc=[T, T, T] config_type=high_entropy dft_energy=9.55855352 Lattice="6.76867500 0.00000000 0.00000000 0.20070500 6.01468700 0.00000000 0.70423800 0.10203000 1.55650400" Properties=species:S:1:pos:R:3:velocities:R:3:dft_forces:R:3:Z:I:1
Al         4.53766290       3.61035033       1.22744262         0.00000000       0.00000000       0.00000000        -0.00278600       0.02863000       0.00698100         13
Al         1.11878911       2.79525253       1.20009405         0.00000000       0.00000000       0.00000000        -0.00628200      -0.02215600       0.00583600         13
Al         5.18041133       0.56738785       0.78469886         0.00000000       0.00000000       0.00000000         0.00644400       0.02205400      -0.00591000         13
Al         1.96195400       5.76719464       0.75753564         0.00000000       0.00000000       0.00000000         0.00262400      -0.02852800      -0.00690700         13
8
pbc=[T, T, T] config_type=high_entropy dft_energy=-27.07441710 Lattice="6.96991100 0.00000000 0.00000000 0.17284100 7.58374200 0.00000000 0.83259800 0.17752200 3.53155600" Properties=species:S:1:pos:R:3:velocities:R:3:dft_forces:R:3:Z:I:1
Al         7.26658998       1.08139839      -0.59811354         0.00000000       0.00000000       0.00000000         0.01460200      -0.02737200      -0.09594500         13
Al         3.79895185       0.60859468       1.04912286         0.00000000       0.00000000       0.00000000        -0.00952400       0.00685500       0.09847500         13
Al         2.59111220       3.32730692       1.37240327         0.00000000       0.00000000       0.00000000         0.02443600      -0.00748800       0.00672100         13
Al        -0.18533081       6.64701220       1.51036417         0.00000000       0.00000000       0.00000000        -0.04021100       0.02340200      -0.09591700         13
Al         4.37981970       5.36085452       0.28736122         0.00000000       0.00000000       0.00000000         0.01461900      -0.00111400       0.06431300         13
Al         2.56932213       6.12670726       2.66675627         0.00000000       0.00000000       0.00000000        -0.00928000       0.01293500      -0.00380700         13
Al         6.92298290       3.89401336       0.21066948         0.00000000       0.00000000       0.00000000        -0.01707800       0.01019900      -0.07003700         13
Al         5.35309899       2.77889417       2.49001369         0.00000000       0.00000000       0.00000000         0.02243600      -0.01741700       0.09619700         13
3
pbc=[T, T, T] config_type=high_entropy dft_energy=-8.96380472 Lattice="8.59161000 0.00000000 0.00000000 0.07563700 2.22783000 0.00000000 0.35462600 -1.02357800 2.68356200" Properties=species:S:1:pos:R:3:velocities:R:3:dft_forces:R:3:Z:I:1
Al         1.70319139       2.77314310       2.07884423         0.00000000       0.00000000       0.00000000         0.53476200      -0.01334800      -0.08389400         13
Al         7.76296543       1.75107972       2.46046188         0.00000000       0.00000000       0.00000000        -0.01705200      -0.02370100       0.00513800         13
Al         5.29707487       2.93526344       2.81919792         0.00000000       0.00000000       0.00000000        -0.51771000       0.03704900       0.07875600         13
2
pbc=[T, T, T] config_type=high_entropy dft_energy=-4.68917176 Lattice="5.28323200 0.00000000 0.00000000 2.39053600 4.35623400 0.00000000 0.55619400 0.47489400 1.97608300" Properties=species:S:1:pos:R:3:velocities:R:3:dft_forces:R:3:Z:I:1
Al         3.75658408       2.74693037       1.59793728         0.00000000       0.00000000       0.00000000         0.10483800      -0.14364900      -0.04043000         13
Al         6.40313232       4.06080531       1.11364620         0.00000000       0.00000000       0.00000000        -0.10483800       0.14364900       0.04043000         13
3
pbc=[T, T, T] config_type=high_entropy dft_energy=-8.64640128 Lattice="13.39511700 0.00000000 0.00000000 0.01644900 3.09797000 0.00000000 1.32272400 0.09083200 2.57552500" Properties=species:S:1:pos:R:3:velocities:R:3:dft_forces:R:3:Z:I:1
Al         2.35352282       0.20106160       0.62617684         0.00000000       0.00000000       0.00000000         0.03615700       0.00204100      -0.01648900         13
Al         5.87666574       1.91241475       0.65089951         0.00000000       0.00000000       0.00000000        -0.48828000       0.01345900       0.26162800         13
Al         0.00787766       1.61923943       3.13709679         0.00000000       0.00000000       0.00000000         0.45212300      -0.01550100      -0.24513900         13
2
pbc=[T, T, T] config_type=high_entropy dft_energy=-4.67721396 Lattice="5.30183100 0.00000000 0.00000000 -2.43878200 5.23456900 0.00000000 0.39489600 0.53747600 2.04760300" Properties=species:S:1:pos:R:3:velocities:R:3:dft_forces:R:3:Z:I:1
Al         7.85345894       4.16167281       0.37480070         0.00000000       0.00000000       0.00000000        -0.06192500      -0.23448400      -0.01304400         13
Al         5.43523326       2.64892270       1.96319442         0.00000000       0.00000000       0.00000000         0.06192500       0.23448400       0.01304400         13
21
pbc=[T, T, T] config_type=high_entropy dft_energy=-65.74450278 Lattice="10.72687700 0.00000000 0.00000000 3.13885800 11.00152100 0.00000000 0.61410900 0.33183100 4.29855500" Properties=species:S:1:pos:R:3:velocities:R:3:dft_forces:R:3:Z:I:1
Al         2.94509354       4.81937264       3.18151060         0.00000000       0.00000000       0.00000000         0.30838500      -0.70917600      -0.07070700         13
Al         4.30298761       8.62784881       1.33533280         0.00000000       0.00000000       0.00000000        -0.52319900       0.79085300      -0.15699600         13
Al         6.50663241       9.82220906       1.45202288         0.00000000       0.00000000       0.00000000        -0.57241500      -0.27320100      -0.08020400         13
Al         3.72715440       2.92652163       1.01643663         0.00000000       0.00000000       0.00000000        -0.04509700       0.13721200      -0.04445600         13
Al         9.18649769       5.05665055       2.16317271         0.00000000       0.00000000       0.00000000         1.65046300       1.47157200      -0.01370500         13
Al         4.57616250       6.61137888       2.82936163         0.00000000       0.00000000       0.00000000        -0.86271200       0.41547000       0.36575700         13
Al        11.30943191       4.33330354       3.61870669         0.00000000       0.00000000       0.00000000        -0.71984100       1.45810900      -0.16636500         13
Al        10.04810238      11.73177290       3.02845254         0.00000000       0.00000000       0.00000000         0.46732800       0.47244500      -0.07159900         13
Al        10.32697087       2.86889601       1.56209585         0.00000000       0.00000000       0.00000000        -0.44321200      -0.91395100       0.69931700         13
Al         8.97777089      10.33653782       1.08109531         0.00000000       0.00000000       0.00000000         0.85461100      -0.24532100       0.20198900         13
Al         6.74512772       5.42149952       2.58283525         0.00000000       0.00000000       0.00000000        -0.53515500       0.55037800       0.02828800         13
Al         7.63266226       3.08244090       2.60035495         0.00000000       0.00000000       0.00000000        -0.04503500      -0.71074900       0.64990800         13
Al         9.99133676       9.21295820       3.31356100         0.00000000       0.00000000       0.00000000         1.16352300      -1.72866100      -0.35464800         13
Al         6.16846755       6.89608434       4.77182068         0.00000000       0.00000000       0.00000000         0.93250300      -0.20068700      -0.13860500         13
Al         8.16761629       1.73395391       4.98450627         0.00000000       0.00000000       0.00000000         1.00817900       0.46345700      -0.81910800         13
Al         0.75321134       1.84301332       3.73768767         0.00000000       0.00000000       0.00000000        -0.28846100      -0.64133400      -0.13295900         13
Al         8.14560689       4.72165666       4.63718171         0.00000000       0.00000000       0.00000000         0.00560600      -0.13472500      -0.44534000         13
Al         3.33784515       8.91502386       3.66651565         0.00000000       0.00000000       0.00000000        -0.82068100      -0.12014700       0.12276200         13
Al         1.53848766       6.37176513       1.06154099         0.00000000       0.00000000       0.00000000         0.17841200      -0.18646900      -0.09914000         13
Al         7.90282100      10.57224850       3.39752884         0.00000000       0.00000000       0.00000000        -0.95100400       0.43365100       0.17045700         13
Al         2.29877472      -0.13146695       3.63483652         0.00000000       0.00000000       0.00000000        -0.76219800      -0.32872600       0.35535500         13
3
pbc=[T, T, T] config_type=high_entropy dft_energy=-8.59986651 Lattice="7.12330700 0.00000000 0.00000000 0.80488300 5.88023300 0.00000000 1.09018300 0.52320000 1.99357400" Properties=species:S:1:pos:R:3:velocities:R:3:dft_forces:R:3:Z:I:1
Al         9.43020762       4.59241726       1.13901474         0.00000000       0.00000000       0.00000000        -0.18320500       0.00422600       0.16863200         13
Al         6.42798432       4.22115218       2.24538046         0.00000000       0.00000000       0.00000000         0.15238900       0.10063600      -0.15373100         13
Al         6.88346409       1.11813203       0.50293904         0.00000000       0.00000000       0.00000000         0.03081600      -0.10486200      -0.01490100         13
2
pbc=[T, T, T] config_type=high_entropy dft_energy=-4.58948739 Lattice="6.39055700 0.00000000 0.00000000 3.14705000 6.10700700 0.00000000 0.58039700 0.24145700 2.17911800" Properties=species:S:1:pos:R:3:velocities:R:3:dft_forces:R:3:Z:I:1
Al         8.26211879       5.03925902       1.82166990         0.00000000       0.00000000       0.00000000         0.06651300       0.01861900      -0.00481400         13
Al         7.11171138       1.47400392       0.45623575         0.00000000       0.00000000       0.00000000        -0.06651300      -0.01861900       0.00481400         13
16
pbc=[T, T, T] config_type=high_entropy dft_energy=-45.34736066 Lattice="10.73126300 0.00000000 0.00000000 1.22818700 10.55953800 0.00000000 1.51343600 0.98084200 4.59102500" Properties=species:S:1:pos:R:3:velocities:R:3:dft_forces:R:3:Z:I:1
Al         5.59584945       6.33152111       4.11043522         0.00000000       0.00000000       0.00000000        -0.01126400       0.05190500      -0.09778100         13
Al         7.72190224       6.68022712       1.49409170         0.00000000       0.00000000       0.00000000         0.10024100       0.01098700       0.12701600         13
Al         2.80358436       1.94081213       3.08774876         0.00000000       0.00000000       0.00000000        -0.05931200       0.08766600      -0.00134500         13
Al         9.00963547       4.90635539      -1.12277817         0.00000000       0.00000000       0.00000000         0.07023800       0.17025700      -0.05929400         13
Al         5.40987310       3.72263956       2.05287611         0.00000000       0.00000000       0.00000000        -0.01049200      -0.04056600       0.00170600         13
Al        10.38015322       1.24075705       3.97221661         0.00000000       0.00000000       0.00000000         0.05786400      -0.01448500      -0.13762600         13
Al        11.52959835      -0.41770534       1.42091642         0.00000000       0.00000000       0.00000000        -0.08297700       0.09960200      -0.00736100         13
Al         8.23780372       3.98696699       3.72209783         0.00000000       0.00000000       0.00000000        -0.17658100      -0.10070500       0.04695300         13
Al        10.00524709       8.95227593       2.96718745         0.00000000       0.00000000       0.00000000         0.05178000      -0.05459200      -0.07682600         13
Al         7.61286182       1.32225501       2.00106467         0.00000000       0.00000000       0.00000000        -0.02393800      -0.00445800       0.05804600         13
Al         4.30585613       0.86615369       0.32265522         0.00000000       0.00000000       0.00000000        -0.03890500      -0.02399400       0.00970200         13
Al         0.21579882       3.19077853       1.15317811         0.00000000       0.00000000       0.00000000         0.05028800      -0.00524500       0.06148800         13
Al         4.35883526       7.98184115       1.52922885         0.00000000       0.00000000       0.00000000         0.07188000      -0.03495900      -0.07182800         13
Al         0.63923293       7.11299352       0.26338098         0.00000000       0.00000000       0.00000000        -0.12723800      -0.08884500       0.14795500         13
Al         6.68636722       9.60305627       3.02193230         0.00000000       0.00000000       0.00000000         0.05919300      -0.04745000       0.02402800         13
Al         2.63525694       5.33081190       2.58521589         0.00000000       0.00000000       0.00000000         0.06922300      -0.00511900      -0.02483200         13
14
pbc=[T, T, T] config_type=high_entropy dft_energy=-43.45965703 Lattice="10.30531000 0.00000000 0.00000000 4.61495800 8.23443600 0.00000000 0.80219300 0.37646900 3.87083400" Properties=species:S:1:pos:R:3:velocities:R:3:dft_forces:R:3:Z:I:1
Al         4.65568036       1.75548269       0.04645544         0.00000000       0.00000000       0.00000000         1.14588100       0.75714000      -0.28085400         13
Al         3.39484163       0.72966414       4.48713825         0.00000000       0.00000000       0.00000000        -1.45857500      -0.69560600      -0.15036200         13
Al         9.88791570       3.50266695       0.87077848         0.00000000       0.00000000       0.00000000         0.41103200       0.00547600      -0.59032800         13
Al         6.64935559       1.73468828       1.67785317         0.00000000       0.00000000       0.00000000         1.88518700       0.24938000      -0.45197200         13
Al         3.95173029       3.06215410       2.09440103         0.00000000       0.00000000       0.00000000        -0.30938000       1.63154400      -0.29970400         13
Al         9.73943270       7.41988835       0.21047313         0.00000000       0.00000000       0.00000000         0.84996300      -1.05466900      -0.36878000         13
Al         4.48530236       0.58519100       2.23467336         0.00000000       0.00000000       0.00000000        -0.07518600      -0.84062400       0.37341300         13
Al         1.90348659       1.67738855       2.66245453         0.00000000       0.00000000       0.00000000        -1.85999900       0.48200500       0.47102400         13
Al         4.47917584       4.27022424      -0.18833779         0.00000000       0.00000000       0.00000000         1.06259300       1.61611600      -0.30431900         13
Al         8.90392074       4.45656168       3.04447474         0.00000000       0.00000000       0.00000000        -0.70508100      -0.12483900       0.42999200         13
Al         9.35920218       1.45597035       2.28138437         0.00000000       0.00000000       0.00000000        -0.04781400      -0.37795000       0.46935800         13
Al         7.93470951       6.59020889       2.04168769         0.00000000       0.00000000       0.00000000         0.11700800      -1.02876000       0.74675000         13
Al         5.50854175       6.48454503       1.23676330         0.00000000       0.00000000       0.00000000        -0.71759900      -0.28117900      -0.22269800         13
Al         2.00924918       4.00402897       0.29383694         0.00000000       0.00000000       0.00000000        -0.29803000      -0.33803400       0.17847900         13
2
pbc=[T, T, T] config_type=high_entropy dft_energy=-5.00405938 Lattice="4.38934600 0.00000000 0.00000000 1.77097600 4.20101200 0.00000000 1.06027100 0.88020300 2.04413500" Properties=species:S:1:pos:R:3:velocities:R:3:dft_forces:R:3:Z:I:1
Al         2.38205625       1.81386577       1.76486844         0.00000000       0.00000000       0.00000000        -0.04719800       0.00996700      -0.00918800         13
Al         3.27582453       3.90976254       1.75907626         0.00000000       0.00000000       0.00000000         0.04719800      -0.00996700       0.00918800         13
20
pbc=[T, T, T] config_type=high_entropy dft_energy=-55.93204581 Lattice="6.57464800 0.00000000 0.00000000 2.70750000 11.05547400 0.00000000 1.35736900 -0.08472900 8.86121000" Properties=species:S:1:pos:R:3:velocities:R:3:dft_forces:R:3:Z:I:1
Al         8.08410151       1.19757683       6.50190524         0.00000000       0.00000000       0.00000000         0.02147000       0.07845800       0.04694900         13
Al         7.50842424       9.17852555      -0.11103895         0.00000000       0.00000000       0.00000000         0.00098800      -0.03188200      -0.00883900         13
Al         3.82820373       1.40677948      -0.25955097         0.00000000       0.00000000       0.00000000        -0.02246700       0.06744400      -0.04146800         13
Al         2.59076542       7.28386979       2.84558314         0.00000000       0.00000000       0.00000000         0.00040200      -0.03200900       0.03325700         13
Al        10.41955770       9.07474267       5.58387434         0.00000000       0.00000000       0.00000000        -0.02273300      -0.01868700      -0.04776200         13
Al         7.95947794       6.89527631       6.22340141         0.00000000       0.00000000       0.00000000         0.02935200      -0.08344300       0.05765400         13
Al         1.45045482       4.10954291       4.11116961         0.00000000       0.00000000       0.00000000         0.01055900      -0.00962100       0.08485300         13
Al         3.65612521       6.98652423      -0.53699634         0.00000000       0.00000000       0.00000000        -0.04549000      -0.09647900      -0.02396300         13
Al         5.13261802       2.37506831       4.79725070         0.00000000       0.00000000       0.00000000         0.00171300       0.03421500       0.08214800         13
Al         5.33301836      11.95976296       3.12525324         0.00000000       0.00000000       0.00000000         0.00436100       0.00165300      -0.01615200         13
Al         3.93711776       4.17453969       1.81167902         0.00000000       0.00000000       0.00000000         0.03122100       0.00510700      -0.03276300         13
Al         5.94321436      -0.34635236       2.89204286         0.00000000       0.00000000       0.00000000        -0.02706300      -0.06216200       0.01801900         13
Al         5.88491120       8.57170537       2.89636029         0.00000000       0.00000000       0.00000000         0.03561700       0.07637900      -0.01353800         13
Al         4.96629116       5.82454416       4.80792638         0.00000000       0.00000000       0.00000000        -0.02930300      -0.04101300       0.10280200         13
Al         7.06402769      10.23570938       5.91507877         0.00000000       0.00000000       0.00000000         0.00382400       0.02626100      -0.01617100         13
Al         3.29448316       4.05064179       7.27792740         0.00000000       0.00000000       0.00000000        -0.01730400       0.01631100      -0.00669900         13
Al         6.57816601       4.06898684       7.36818695         0.00000000       0.00000000       0.00000000         0.00071300       0.00339800      -0.00229900         13
Al         8.02543085      -0.81843326       0.22935638         0.00000000       0.00000000       0.00000000         0.00656500       0.04581300       0.03838500         13
Al         0.37032734       2.46683237       1.06853138         0.00000000       0.00000000       0.00000000         0.00863300       0.01391500      -0.10076400         13
Al         6.79438572       5.95201216       0.86706849         0.00000000       0.00000000       0.00000000         0.00894100       0.00634300      -0.15364900         13
4
pbc=[T, T, T] config_type=high_entropy dft_energy=-10.16574207 Lattice="7.86959400 0.00000000 0.00000000 1.57192900 8.90889000 0.00000000 0.05054800 1.08775400 2.38350400" Properties=species:S:1:pos:R:3:velocities:R:3:dft_forces:R:3:Z:I:1
Al         2.81222894       7.37844061       1.80370059         0.00000000       0.00000000       0.00000000         0.53960500      -0.27186700       0.11621700         13
Al         5.85900949       4.94978386       1.63187277         0.00000000       0.00000000       0.00000000        -0.51730100       0.32058700      -0.14062800         13
Al         2.36560282       3.04028670       1.33965792         0.00000000       0.00000000       0.00000000         0.54667700       0.08161400      -0.06225300         13
Al         4.68513571       0.36918778       2.27005850         0.00000000       0.00000000       0.00000000        -0.56898100      -0.13033400       0.08666500         13
3
pbc=[T, T, T] config_type=high_entropy dft_energy=2.88540152 Lattice="4.72257500 0.00000000 0.00000000 0.53302100 4.50041300 0.00000000 0.86568400 -0.09037200 1.61779900" Properties=species:S:1:pos:R:3:velocities:R:3:dft_forces:R:3:Z:I:1
Al         4.78068492       1.47078921       1.07415334         0.00000000       0.00000000       0.00000000        -0.00007300      -0.00766900       0.00176600         13
Al         4.61451244       3.76571743       0.26589088         0.00000000       0.00000000       0.00000000         0.00630600       0.00371900      -0.00896700         13
Al         2.25311395       3.76677015       0.26528252         0.00000000       0.00000000       0.00000000        -0.00623300       0.00395000       0.00720100         13
3
pbc=[T, T, T] config_type=high_entropy dft_energy=-6.55544939 Lattice="7.38439800 0.00000000 0.00000000 2.71123100 6.55606700 0.00000000 0.71442000 0.42313200 2.02183300" Properties=species:S:1:pos:R:3:velocities:R:3:dft_forces:R:3:Z:I:1
Al         5.12307573       3.44455942       1.56811951         0.00000000       0.00000000       0.00000000         0.41857500      -0.31178300      -0.06847800         13
Al         8.11587682       6.11254511       1.84808802         0.00000000       0.00000000       0.00000000         0.08929100       0.24652800      -0.12288500         13
Al         7.62663320       1.10183739      -0.43976829         0.00000000       0.00000000       0.00000000        -0.50786600       0.06525600       0.19136300         13
2
pbc=[T, T, T] config_type=high_entropy dft_energy=-0.53023067 Lattice="6.00326800 0.00000000 0.00000000 1.28451100 5.91602500 0.00000000 0.93211200 -0.18402200 1.65120100" Properties=species:S:1:pos:R:3:velocities:R:3:dft_forces:R:3:Z:I:1
Al         5.11900016       1.54675232       1.04901127         0.00000000       0.00000000       0.00000000        -0.01691400      -0.57004900      -0.05595600         13
Al         1.93964124      -0.45297704       0.61270826         0.00000000       0.00000000       0.00000000         0.01691400       0.57004900       0.05595600         13
2
pbc=[T, T, T] config_type=high_entropy dft_energy=0.15122229 Lattice="5.37718500 0.00000000 0.00000000 2.47438200 5.98329300 0.00000000 0.08446800 0.64247600 1.76149900" Properties=species:S:1:pos:R:3:velocities:R:3:dft_forces:R:3:Z:I:1
Al         4.04360008       5.01578146       0.21055290         0.00000000       0.00000000       0.00000000         0.10330800      -0.22332900       0.06704700         13
Al         4.45137586       1.87335873       0.50531383         0.00000000       0.00000000       0.00000000        -0.10330800       0.22332900      -0.06704700         13
7
pbc=[T, T, T] config_type=high_entropy dft_energy=-22.14306435 Lattice="9.47722900 0.00000000 0.00000000 4.48098800 8.23712600 0.00000000 1.24359300 -0.24983800 2.29522400" Properties=species:S:1:pos:R:3:velocities:R:3:dft_forces:R:3:Z:I:1
Al         7.61020862       0.64459490       1.10057076         0.00000000       0.00000000       0.00000000         0.02977400      -0.11152500      -0.03485500         13
Al         6.45632015       4.49381606       0.70300057         0.00000000       0.00000000       0.00000000        -0.02431900       0.13752500      -0.01631100         13
Al         6.12796024       7.88927664       1.12517729         0.00000000       0.00000000       0.00000000         0.03189900      -0.04597400      -0.02174100         13
Al         9.63693305       6.46583388       1.30018365         0.00000000       0.00000000       0.00000000         0.03543300      -0.10096100      -0.01367600         13
Al         9.49594909       3.40009020       0.07922400         0.00000000       0.00000000       0.00000000        -0.01167400       0.10582500       0.01251800         13
Al        12.82464574       5.58159920       1.00745752         0.00000000       0.00000000       0.00000000         0.00196000       0.04202700       0.02956600         13
Al         4.12890903       1.92241144       1.36660240         0.00000000       0.00000000       0.00000000        -0.06307400      -0.02691700       0.04449800         13
21
pbc=[T, T, T] config_type=high_entropy dft_energy=-69.68585574 Lattice="10.15435000 0.00000000 0.00000000 4.88626800 11.38279000 0.00000000 0.98264700 0.11268700 3.57240700" Properties=species:S:1:pos:R:3:velocities:R:3:dft_forces:R:3:Z:I:1
Al        13.73354239      11.91354405       0.39200672         0.00000000       0.00000000       0.00000000        -0.22864600       0.18548900       0.38350400         13
Al         6.51581922       1.74192244       0.11635924         0.00000000       0.00000000       0.00000000        -0.23370500       0.16074400       0.09701000         13
Al         7.60422581       9.13209745       1.03644207         0.00000000       0.00000000       0.00000000         0.27679900       0.45192600       0.46876800         13
Al         8.76260734       5.37570965       2.46867299         0.00000000       0.00000000       0.00000000        -0.33195900      -0.14448100      -0.36590400         13
Al         4.72484329       7.62938366       1.81765239         0.00000000       0.00000000       0.00000000         1.06637000      -0.12167500      -0.61191200         13
Al         2.79697594       2.67205792       3.38866587         0.00000000       0.00000000       0.00000000         0.34657800       0.10432300      -0.02142400         13
Al        11.29871959      10.65599903       0.70052628         0.00000000       0.00000000       0.00000000         0.34829500       0.18070300       0.39619700         13
Al         7.53300856       7.55029026       3.03622890         0.00000000       0.00000000       0.00000000        -0.96397700      -0.55205400       0.28072300         13
Al         4.43326433       6.11142524       3.85020567         0.00000000       0.00000000       0.00000000         0.02565200      -0.39602700       0.03977500         13
Al         8.13527918       3.09610380       1.54649419         0.00000000       0.00000000       0.00000000        -0.18996600      -0.00876000       0.06930700         13
Al         5.18974605       9.58237822       3.47280173         0.00000000       0.00000000       0.00000000        -0.02555400      -0.68145400       0.51738200         13
Al         8.45856822      11.62311090       3.07428602         0.00000000       0.00000000       0.00000000        -0.03081200      -1.23267300      -0.53649100         13
Al         4.20885453       4.31803202       2.03592627         0.00000000       0.00000000       0.00000000         0.21804000       0.12677200      -0.51165500         13
Al         5.26968547       2.02520784       2.46037804         0.00000000       0.00000000       0.00000000         0.18634800      -0.00657800      -0.24340400         13
Al        11.60433899       7.40069661       1.04265474         0.00000000       0.00000000       0.00000000         0.07728400      -0.07656200      -0.36699700         13
Al        10.39872967       9.65147631       2.86825250         0.00000000       0.00000000       0.00000000        -0.71286500       0.34377500      -0.36355000         13
Al        12.87904002       9.14814937       2.39736693         0.00000000       0.00000000       0.00000000         0.59692500       0.41844300      -0.33425000         13
Al        10.68784883       2.02402682       1.95927257         0.00000000       0.00000000       0.00000000        -0.35973500       0.31787700      -0.38556100         13
Al        10.42634592       7.12632688       3.30680657         0.00000000       0.00000000       0.00000000        -0.49871200      -0.48599300       0.80520400         13
Al         5.83518488      10.94095859       1.39364945         0.00000000       0.00000000       0.00000000        -0.14362000       0.38028100       0.47953600         13
Al         9.85154826       4.00877785      -0.13189374         0.00000000       0.00000000       0.00000000         0.57726200       1.03592600       0.20374100         13
12
pbc=[T, T, T] config_type=high_entropy dft_energy=-38.10824636 Lattice="9.56508900 0.00000000 0.00000000 1.37706000 10.52782100 0.00000000 0.94555700 1.34001100 3.32979900" Properties=species:S:1:pos:R:3:velocities:R:3:dft_forces:R:3:Z:I:1
Al         9.13796059       3.06250180       1.63813335         0.00000000       0.00000000       0.00000000        -0.24361600      -0.06898700       0.12388700         13
Al         4.69489516       6.11338367       1.08308318         0.00000000       0.00000000       0.00000000        -0.21485200      -0.21617800       0.16748300         13
Al         8.78066822       5.64996046       0.71223701         0.00000000       0.00000000       0.00000000         0.17347900       0.00585300       0.01683700         13
Al         3.26723277       8.73065749       0.70260469         0.00000000       0.00000000       0.00000000        -0.30468800       0.10177700       0.01693200         13
Al         1.77293870       4.50194384       2.52866845         0.00000000       0.00000000       0.00000000         0.32246800       0.19735900      -0.20383200         13
Al         2.01763804       5.82440540      -0.10717268         0.00000000       0.00000000       0.00000000        -0.11570400       0.15418900       0.00370700         13
Al         8.54161430       0.52025538       0.75910150         0.00000000       0.00000000       0.00000000         0.18005100      -0.34962200       0.09286600         13
Al        10.89429604       9.59892978       3.13690888         0.00000000       0.00000000       0.00000000         0.26733600      -0.08699500      -0.16338200         13
Al         1.80562170       1.41097166       1.62053478         0.00000000       0.00000000       0.00000000         0.19327600      -0.17142000       0.02084400         13
Al         4.77392519       0.37140756      -0.31138333         0.00000000       0.00000000       0.00000000        -0.12085500       0.46734500      -0.12805300         13
Al         3.60603486       3.43185962       0.40320204         0.00000000       0.00000000       0.00000000         0.20241800      -0.21208000       0.01432200         13
Al         6.86719046       3.42235526       0.05966845         0.00000000       0.00000000       0.00000000        -0.33931300       0.17875800       0.03838900         13
3
pbc=[T, T, T] config_type=high_entropy dft_energy=-10.59617656 Lattice="3.46006700 0.00000000 0.00000000 1.06909400 3.90019300 0.00000000 0.86268700 0.96750300 3.74225100" Properties=species:S:1:pos:R:3:velocities:R:3:dft_forces:R:3:Z:I:1
Al         1.92117219       1.53885710       1.32183929         0.00000000       0.00000000       0.00000000        -0.00011100      -0.00015800       0.00044800         13
Al         3.71843969       3.16133785       2.56934426         0.00000000       0.00000000       0.00000000        -0.00004400       0.00066300      -0.00030200         13
Al         0.98656395       0.88381945       3.81673436         0.00000000       0.00000000       0.00000000         0.00015500      -0.00050500      -0.00014500         13
10
pbc=[T, T, T] config_type=high_entropy dft_energy=-35.28775214 Lattice="12.55069300 0.00000000 0.00000000 2.22402700 3.87751400 0.00000000 0.78515500 0.68754100 3.90333800" Properties=species:S:1:pos:R:3:velocities:R:3:dft_forces:R:3:Z:I:1
Al         8.62115668       1.99591887       3.08815634         0.00000000       0.00000000       0.00000000        -0.23251200      -0.19765400       0.05457500         13
Al        11.73229413       3.52454296       2.00326640         0.00000000       0.00000000       0.00000000         0.13383600      -0.19507100      -0.21991100         13
Al         6.90108397       3.04522406       1.03217156         0.00000000       0.00000000       0.00000000        -0.06494500       0.14389600      -0.31381400         13
Al        11.76887120       0.92433302       2.58110470         0.00000000       0.00000000       0.00000000         0.05326200      -0.01567800       0.09313000         13
Al        10.05155682       1.93621641       0.60752821         0.00000000       0.00000000       0.00000000         0.20925900       0.32834000      -0.01911500         13
Al         0.75836671       1.47840618      -0.78226618         0.00000000       0.00000000       0.00000000        -0.01741000       0.13976200      -0.02351500         13
Al        14.88023360       3.12735204       0.63687297         0.00000000       0.00000000       0.00000000        -0.09538400      -0.19235100      -0.03324900         13
Al         2.41860648       0.48464849       1.19451229         0.00000000       0.00000000       0.00000000         0.07665900       0.01396800      -0.08719300         13
Al         5.33633961       2.62138283       3.31210175         0.00000000       0.00000000       0.00000000         0.24076700      -0.31373400       0.36962100         13
Al         6.91945187       0.42337440       1.69448527         0.00000000       0.00000000       0.00000000        -0.30353200       0.28852100       0.17947200         13
6
pbc=[T, T, T] config_type=high_entropy dft_energy=-11.20265536 Lattice="7.37627300 0.00000000 0.00000000 3.36619600 6.39830500 0.00000000 0.29494500 0.79501300 2.01013600" Properties=species:S:1:pos:R:3:velocities:R:3:dft_forces:R:3:Z:I:1
Al         8.82194437       4.98315039       1.94304080         0.00000000       0.00000000       0.00000000         0.10649600      -0.00468800       0.03704000         13
Al         4.85187822       4.19048993      -0.04276900         0.00000000       0.00000000       0.00000000        -0.20299500      -0.10069300       0.06301400         13
Al         3.17506091       3.67535855       1.26310658         0.00000000       0.00000000       0.00000000        -1.43167700       0.37623600       0.38592600         13
Al         6.80216156       5.48539221       0.64316731         0.00000000       0.00000000       0.00000000         1.57067800      -0.40245700      -0.45750800         13
Al         6.99392141       1.38395453       0.92525616         0.00000000       0.00000000       0.00000000         0.00286300       0.00343500      -0.00447000         13
Al         3.30084911       1.37574557       0.95342300         0.00000000       0.00000000       0.00000000        -0.04536600       0.12816700      -0.02400300         13
3
pbc=[T, T, T] config_type=high_entropy dft_energy=-8.72250519 Lattice="6.17894500 0.00000000 0.00000000 2.75233600 6.62726800 0.00000000 0.15829100 1.27466100 2.49155900" Properties=species:S:1:pos:R:3:velocities:R:3:dft_forces:R:3:Z:I:1
Al         7.26332634       5.38723544       0.14710933         0.00000000       0.00000000       0.00000000        -0.00938500      -0.07906400       0.03923400         13
Al         2.53735196       2.56754209       0.94639053         0.00000000       0.00000000       0.00000000         0.01372800       0.16498600      -0.07766300         13
Al         5.68846865       3.28319382       2.16896094         0.00000000       0.00000000       0.00000000        -0.00434300      -0.08592200       0.03842800         13
3
pbc=[T, T, T] config_type=high_entropy dft_energy=-6.76557320 Lattice="6.85114200 0.00000000 0.00000000 1.30711700 7.25776300 0.00000000 0.35811400 0.63920600 2.06840900" Properties=species:S:1:pos:R:3:velocities:R:3:dft_forces:R:3:Z:I:1
Al         2.33593128       0.32784149       0.72895374         0.00000000       0.00000000       0.00000000        -0.31781100       0.23493800      -0.01177400         13
Al         5.77693270       0.81495567       0.23518500         0.00000000       0.00000000       0.00000000         0.37861800       0.10488200      -0.11848700         13
Al         7.50032978       3.90943846       0.10312780         0.00000000       0.00000000       0.00000000        -0.06080700      -0.33982000       0.13026100         13
2
pbc=[T, T, T] config_type=high_entropy dft_energy=-6.06629310 Lattice="3.76375100 0.00000000 0.00000000 1.69941200 3.63221700 0.00000000 0.22504400 0.20199200 4.22893500" Properties=species:S:1:pos:R:3:velocities:R:3:dft_forces:R:3:Z:I:1
Al         5.48733429       2.41416655       3.31387571         0.00000000       0.00000000       0.00000000         0.00867600       0.05991500      -0.00232000         13
Al         1.81124266       0.05448585       1.19327370         0.00000000       0.00000000       0.00000000        -0.00867600      -0.05991500       0.00232000         13
2
pbc=[T, T, T] config_type=high_entropy dft_energy=-6.24748396 Lattice="4.47897200 0.00000000 0.00000000 -2.18597700 4.69479700 0.00000000 0.23401200 1.13325800 2.20123700" Properties=species:S:1:pos:R:3:velocities:R:3:dft_forces:R:3:Z:I:1
Al         1.64368658       3.11763661      -0.09947322         0.00000000       0.00000000       0.00000000         0.02280700      -0.03259200      -0.00748900         13
Al         2.96533932       1.89547766       2.09901848         0.00000000       0.00000000       0.00000000        -0.02280700       0.03259200       0.00748900         13
5
pbc=[T, T, T] config_type=high_entropy dft_energy=-12.02533503 Lattice="8.12179300 0.00000000 0.00000000 2.69404000 6.28434100 0.00000000 1.13252300 -0.33726900 3.95045300" Properties=species:S:1:pos:R:3:velocities:R:3:dft_forces:R:3:Z:I:1
Al         3.95907553       4.67811869       1.80051020         0.00000000       0.00000000       0.00000000         0.01195600       0.01083800       0.00095200         13
Al         4.30501590       0.05865367       3.39342509         0.00000000       0.00000000       0.00000000         0.02175000      -0.01666300      -0.00891900         13
Al         9.00285614       2.95906558       0.19056799         0.00000000       0.00000000       0.00000000        -0.04067700       0.00335300       0.00988000         13
Al         5.57701528       3.15252241      -0.97177367         0.00000000       0.00000000       0.00000000         0.00871000      -0.13272900      -0.01573300         13
Al         9.29889503       6.48287131       0.61983372         0.00000000       0.00000000       0.00000000        -0.00174000       0.13520100       0.01381900         13
2
pbc=[T, T, T] config_type=high_entropy dft_energy=-5.73416435 Lattice="11.30659200 0.00000000 0.00000000 1.53424400 2.73535300 0.00000000 1.02089900 0.60834100 2.23224200" Properties=species:S:1:pos:R:3:velocities:R:3:dft_forces:R:3:Z:I:1
Al        11.39036143      -0.36804353      -0.26419279         0.00000000       0.00000000       0.00000000        -0.07537000       0.04137400       0.02501100         13
Al         8.84600637       3.47499302       1.48229374         0.00000000       0.00000000       0.00000000         0.07537000      -0.04137400      -0.02501100         13
2
pbc=[T, T, T] config_type=high_entropy dft_energy=-5.73827493 Lattice="10.94476500 0.00000000 0.00000000 1.00834300 2.75837400 0.00000000 0.69851900 -0.03387400 2.86717900" Properties=species:S:1:pos:R:3:velocities:R:3:dft_forces:R:3:Z:I:1
Al        10.00223571       0.44043399       3.10647687         0.00000000       0.00000000       0.00000000         0.51631000      -0.19177400      -0.14290300         13
Al         2.30080616       0.85290920       1.34391583         0.00000000       0.00000000       0.00000000        -0.51631000       0.19177400       0.14290300         13
18
pbc=[T, T, T] config_type=high_entropy dft_energy=-56.38613561 Lattice="11.09962000 0.00000000 0.00000000 1.65542400 10.96587700 0.00000000 0.62833800 -0.02152000 4.32538200" Properties=species:S:1:pos:R:3:velocities:R:3:dft_forces:R:3:Z:I:1
Al         5.48473423       4.50199196       2.40293772         0.00000000       0.00000000       0.00000000        -0.04629000      -0.19177500       0.04439200         13
Al        13.03579348       9.33152490       3.15764531         0.00000000       0.00000000       0.00000000         0.17107300      -0.20322400       0.05623400         13
Al         1.30565520       2.18945387       0.82349447         0.00000000       0.00000000       0.00000000         0.19009400       0.17822000       0.03254400         13
Al         8.88638432       6.76551359       3.85228327         0.00000000       0.00000000       0.00000000        -0.05377800      -0.16060900      -0.00288600         13
Al         4.11250447       3.08522044       0.39029612         0.00000000       0.00000000       0.00000000        -0.01119500       0.00948700       0.06857700         13
Al         6.75832522       2.10409735      -0.43303213         0.00000000       0.00000000       0.00000000        -0.29647000       0.38535100      -0.00091600         13
Al        10.10508541      10.82946423      -0.71855456         0.00000000       0.00000000       0.00000000        -0.09800600      -0.22939200       0.05129300         13
Al         6.25264885      10.28968273       2.28108855         0.00000000       0.00000000       0.00000000        -0.35302700      -0.00348000       0.00111100         13
Al         8.80663710       2.60007711       1.46588803         0.00000000       0.00000000       0.00000000        -0.05517600       0.17133400       0.03776500         13
Al        10.35478649       0.22611025       1.20378341         0.00000000       0.00000000       0.00000000         0.37094000      -0.38904500      -0.08335200         13
Al        10.80822275       1.98709921       3.35210338         0.00000000       0.00000000       0.00000000         0.08790000       0.37682600      -0.01652500         13
Al         1.76883592       7.58781665       0.95703252         0.00000000       0.00000000       0.00000000         0.06311200       0.01337900      -0.07654700         13
Al         3.77450446       6.74080633       2.82375298         0.00000000       0.00000000       0.00000000        -0.06017400       0.22848800       0.06933700         13
Al        12.09816556       4.95325262       0.94659268         0.00000000       0.00000000       0.00000000         0.13412300       0.09126500      -0.03633700         13
Al         3.71585406      11.39551355       2.90539276         0.00000000       0.00000000       0.00000000         0.26172900      -0.10251100      -0.06847000         13
Al         4.20009736       8.94284246       0.54828202         0.00000000       0.00000000       0.00000000        -0.01013100       0.16008800      -0.04272800         13
Al         2.73579666       3.93991442       2.87672254         0.00000000       0.00000000       0.00000000         0.14632400      -0.20190300      -0.07829400         13
Al         7.22346600       0.26260520       1.68532741         0.00000000       0.00000000       0.00000000        -0.44104600      -0.13249800       0.04480100         13
3
pbc=[T, T, T] config_type=high_entropy dft_energy=-5.23378227 Lattice="2.87832800 0.00000000 0.00000000 1.06367200 3.07188700 0.00000000 0.87627300 0.04451300 5.43448900" Properties=species:S:1:pos:R:3:velocities:R:3:dft_forces:R:3:Z:I:1
Al         0.79895851       1.58536758       1.38300168         0.00000000       0.00000000       0.00000000         0.77844300       0.94300400      -8.94976000         13
Al         3.69777358       1.56734269       3.63423042         0.00000000       0.00000000       0.00000000         0.63288600       1.28435000       8.98315200         13
Al         2.25540739       0.36600670       2.51053368         0.00000000       0.00000000       0.00000000        -1.41132900      -2.22735400      -0.03339200         13
6
pbc=[T, T, T] config_type=high_entropy dft_energy=-12.80614789 Lattice="5.21019200 0.00000000 0.00000000 0.19836100 3.51129600 0.00000000 0.22735300 0.60018000 3.98673800" Properties=species:S:1:pos:R:3:velocities:R:3:dft_forces:R:3:Z:I:1
Al         0.34159503      -0.20043896       2.45502028         0.00000000       0.00000000       0.00000000         0.22646300      -0.11853300      -0.54834700         13
Al         2.93560139       1.25628255       0.46453139         0.00000000       0.00000000       0.00000000         0.13661500      -0.12597100      -0.53621500         13
Al         0.09760724       1.31499132       0.35770746         0.00000000       0.00000000       0.00000000        -0.12416200       0.14471500       0.57757100         13
Al         1.61724378       3.04153914       0.40959282         0.00000000       0.00000000       0.00000000        -0.02995600       0.00128700      -0.01179900         13
Al         2.72096623      -0.14122178       2.35083615         0.00000000       0.00000000       0.00000000        -0.24057000       0.14991500       0.54601200         13
Al         4.23428170       1.58636796       2.40630762         0.00000000       0.00000000       0.00000000         0.03161100      -0.05141500      -0.02722200         13
3
pbc=[T, T, T] config_type=high_entropy dft_energy=-7.12111592 Lattice="7.42471700 0.00000000 0.00000000 1.88586300 6.32842600 0.00000000 0.46801400 1.37579700 2.82981500" Properties=species:S:1:pos:R:3:velocities:R:3:dft_forces:R:3:Z:I:1
Al         2.00073803       2.95840931       0.31716950         0.00000000       0.00000000       0.00000000         0.02865400       0.02074700      -0.02085600         13
Al        -0.83817538       0.99099362       1.72840178         0.00000000       0.00000000       0.00000000         0.16901600      -0.24184800       0.10812700         13
Al         4.69443010       5.55270746       0.24694972         0.00000000       0.00000000       0.00000000        -0.19767100       0.22110200      -0.08727100         13
2
pbc=[T, T, T] config_type=high_entropy dft_energy=-2.45956581 Lattice="8.26365100 0.00000000 0.00000000 1.74235400 3.24183700 0.00000000 0.95419900 0.17245900 1.72554200" Properties=species:S:1:pos:R:3:velocities:R:3:dft_forces:R:3:Z:I:1
Al         4.64688355       4.02764394       1.17652286         0.00000000       0.00000000       0.00000000         0.33756900      -0.16783500      -0.14757800         13
Al         6.37854744       1.28473577       0.75432966         0.00000000       0.00000000       0.00000000        -0.33756900       0.16783500       0.14757800         13
25
pbc=[T, T, T] config_type=high_entropy dft_energy=-66.29474232 Lattice="11.14365200 0.00000000 0.00000000 0.71066500 9.76296600 0.00000000 4.01267400 0.98737200 8.05155700" Properties=species:S:1:pos:R:3:velocities:R:3:dft_forces:R:3:Z:I:1
Al         7.56966617       8.09744288       8.51751473         0.00000000       0.00000000       0.00000000         0.00692700      -0.00576400       0.01602500         13
Al        13.09652205       6.43392586       6.70598105         0.00000000       0.00000000       0.00000000        -0.05015700      -0.09159800       0.01505800         13
Al         5.11793762       6.08638807       3.64562534         0.00000000       0.00000000       0.00000000         0.03268900       0.02370500      -0.03307200         13
Al        10.74843258       3.76640326       5.81617245         0.00000000       0.00000000       0.00000000         0.06886300      -0.01389100      -0.01082200         13
Al         3.66380932       2.80180582       1.05815432         0.00000000       0.00000000       0.00000000        -0.02077700      -0.08989300      -0.10774800         13
Al         6.43945574       4.44497929       0.78723562         0.00000000       0.00000000       0.00000000         0.06939800      -0.01082200      -0.04419100         13
Al        12.80959509      10.29819891       6.12567685         0.00000000       0.00000000       0.00000000        -0.10051700       0.05022200       0.05688800         13
Al         7.29822185       8.82541974       4.28184432         0.00000000       0.00000000       0.00000000         0.00916000      -0.01113400      -0.02555700         13
Al         6.48526907       1.02223601       1.50190876         0.00000000       0.00000000       0.00000000         0.04492200      -0.00230400       0.00984500         13
Al         5.18824706       1.67954471       7.73110555         0.00000000       0.00000000       0.00000000         0.02140000       0.05216000      -0.02225100         13
Al        10.66111746       8.25535790       1.45069526         0.00000000       0.00000000       0.00000000        -0.08556400      -0.05799200      -0.01175200         13
Al         1.64827227       5.97655182       3.21161913         0.00000000       0.00000000       0.00000000        -0.07404700      -0.17202600       0.02255400         13
Al         9.30876878       2.33937356       0.36044925         0.00000000       0.00000000       0.00000000        -0.02651400       0.09901600      -0.01731900         13
Al         9.34582914       1.12986592       3.64896570         0.00000000       0.00000000       0.00000000        -0.07737500      -0.02957900       0.06710500         13
Al         4.70285276       8.52214768       6.28181308         0.00000000       0.00000000       0.00000000         0.00814100      -0.04786600       0.06455200         13
Al         6.46502035       2.82632309       4.50085331         0.00000000       0.00000000       0.00000000         0.03458600      -0.00828600       0.04449800         13
Al         3.18669010       3.34389342       5.13827647         0.00000000       0.00000000       0.00000000        -0.13640600       0.09463100       0.04913200         13
Al        10.42899491       7.76241094       5.14864195         0.00000000       0.00000000       0.00000000        -0.05258200       0.02814000      -0.03558200         13
Al         7.80374462       5.65151691       6.00867413         0.00000000       0.00000000       0.00000000         0.02158500       0.05450500      -0.02070400         13
Al         0.83188303       2.51083712       2.77739683         0.00000000       0.00000000       0.00000000         0.01789300       0.14569700      -0.03842400         13
Al         9.23230226      10.78776329       6.89050061         0.00000000       0.00000000       0.00000000         0.05700700      -0.03619300      -0.01930500         13
Al         7.19356867       7.56854263       0.85089521         0.00000000       0.00000000       0.00000000        -0.01222400      -0.00231100      -0.05166300         13
Al         4.93754161       5.56655594       8.03294922         0.00000000       0.00000000       0.00000000         0.02210800       0.02477000       0.11143100         13
Al         9.32038228       5.09635960       2.75768453         0.00000000       0.00000000       0.00000000         0.10288100      -0.01998300       0.00649400         13
Al         3.90063526       9.56881462       3.03328599         0.00000000       0.00000000       0.00000000         0.11860400       0.02679700      -0.02519300         13
15
pbc=[T, T, T] config_type=high_entropy dft_energy=-53.12747990 Lattice="9.17309500 0.00000000 0.00000000 0.47723200 9.01875000 0.00000000 0.44191100 2.07261500 3.68460900" Properties=species:S:1:pos:R:3:velocities:R:3:dft_forces:R:3:Z:I:1
Al         9.22618484       1.98709095       0.04438274         0.00000000       0.00000000       0.00000000        -0.05324200      -0.15007900      -0.00576600         13
Al         4.58729595       6.20113520      -0.13606074         0.00000000       0.00000000       0.00000000         0.02945500      -0.06705300       0.11200200         13
Al         5.55302719       8.91892189       0.84409536         0.00000000       0.00000000       0.00000000         0.06024100       0.10445800      -0.05581400         13
Al         6.86908874       4.16061369       3.17865584         0.00000000       0.00000000       0.00000000        -0.06312800       0.15865300      -0.03731200         13
Al         4.80434578       2.71973244       1.72619001         0.00000000       0.00000000       0.00000000         0.00354700      -0.03059100      -0.05713100         13
Al         1.74442982      10.40850342       2.73416906         0.00000000       0.00000000       0.00000000        -0.02093900       0.08867200       0.03639600         13
Al         4.31466808       5.50325824       2.66110663         0.00000000       0.00000000       0.00000000         0.11508200       0.02150400      -0.01950700         13
Al         1.25019717       8.04185542       4.23325525         0.00000000       0.00000000       0.00000000        -0.08548900       0.18184900      -0.19016000         13
Al         7.74793993       4.36322645       0.44712317         0.00000000       0.00000000       0.00000000        -0.05275800      -0.06739000      -0.05895700         13
Al         7.41920203       1.54026950       2.39294898         0.00000000       0.00000000       0.00000000        -0.16253100       0.35548700       0.14038700         13
Al         2.81041404       7.74937899       1.71240362         0.00000000       0.00000000       0.00000000        -0.02082800       0.03067300      -0.03256200         13
Al         2.15201565       3.82178237       1.28900799         0.00000000       0.00000000       0.00000000         0.15892400      -0.29628400       0.16881400         13
Al         2.72209859       1.15737747       0.30631216         0.00000000       0.00000000       0.00000000        -0.12003900       0.08178700      -0.07836000         13
Al         6.83533806       6.68521780       1.66262308         0.00000000       0.00000000       0.00000000         0.08866000      -0.13886300       0.11854300         13
Al        -0.06686762       8.37314270       1.58939163         0.00000000       0.00000000       0.00000000         0.12304500      -0.27282300      -0.04057400         13
3
pbc=[T, T, T] config_type=high_entropy dft_energy=-8.56867035 Lattice="5.59944200 0.00000000 0.00000000 2.19474300 3.96982600 0.00000000 1.61858000 -0.12892200 4.54620300" Properties=species:S:1:pos:R:3:velocities:R:3:dft_forces:R:3:Z:I:1
Al         6.89177801       3.38341395       0.42533447         0.00000000       0.00000000       0.00000000        -0.00883100       0.07844100      -0.07856000         13
Al         6.58194246       1.16476000       2.37362059         0.00000000       0.00000000       0.00000000         0.00136300      -0.07472100       0.07499300         13
Al         5.83357956       4.19625699       3.66191311         0.00000000       0.00000000       0.00000000         0.00746700      -0.00372000       0.00356800         13
3
pbc=[T, T, T] config_type=high_entropy dft_energy=-7.80576422 Lattice="13.45992500 0.00000000 0.00000000 0.98066700 3.15818000 0.00000000 1.10633400 0.65812500 2.90868200" Properties=species:S:1:pos:R:3:velocities:R:3:dft_forces:R:3:Z:I:1
Al        10.67774022       0.88191044       1.11520238         0.00000000       0.00000000       0.00000000         0.47404700      -0.14255300      -0.15402000         13
Al         1.28840885       1.82417733       1.69951275         0.00000000       0.00000000       0.00000000        -0.03535400       0.01582200       0.00736300         13
Al         4.09065281       0.85488010      -0.51113485         0.00000000       0.00000000       0.00000000        -0.43869300       0.12673100       0.14665700         13
5
pbc=[T, T, T] config_type=high_entropy dft_energy=-14.06857029 Lattice="10.13915500 0.00000000 0.00000000 1.51084200 4.00321200 0.00000000 0.18217100 0.67526100 3.97429800" Properties=species:S:1:pos:R:3:velocities:R:3:dft_forces:R:3:Z:I:1
Al         7.79875177       2.86800966       0.02480363         0.00000000       0.00000000       0.00000000        -0.02410400       0.00269500      -0.00994200         13
Al         1.69169465       2.90334820       4.86612885         0.00000000       0.00000000       0.00000000         0.01376500      -0.00410800       0.00538200         13
Al         5.29478499       1.57553653       1.66736908         0.00000000       0.00000000       0.00000000         0.00424300       0.00266000       0.00157400         13
Al        -1.08487114       0.86284662       2.42822010         0.00000000       0.00000000       0.00000000        -0.01469200       0.00326700      -0.00118400         13
Al         2.75556841       0.25494627       3.28465476         0.00000000       0.00000000       0.00000000         0.02078700      -0.00451400       0.00416900         13
3
pbc=[T, T, T] config_type=high_entropy dft_energy=-8.83180637 Lattice="7.81508600 0.00000000 0.00000000 0.04999900 2.76228700 0.00000000 0.75102500 -0.00724200 2.14644100" Properties=species:S:1:pos:R:3:velocities:R:3:dft_forces:R:3:Z:I:1
Al         8.96368778       0.97760195       0.56355677         0.00000000       0.00000000       0.00000000        -0.00504900      -0.00192100       0.01112100         13
Al         4.26505622       1.90170818       1.98864177         0.00000000       0.00000000       0.00000000         0.00486400       0.00147100      -0.00841600         13
Al         6.59039117       0.05292734       1.27415817         0.00000000       0.00000000       0.00000000         0.00018500       0.00045000      -0.00270500         13
15
pbc=[T, T, T] config_type=high_entropy dft_energy=-46.10275932 Lattice="11.11549500 0.00000000 0.00000000 1.76017600 10.91052300 0.00000000 1.42601400 0.75589000 3.40304000" Properties=species:S:1:pos:R:3:velocities:R:3:dft_forces:R:3:Z:I:1
Al        10.86833959       7.83924086       2.42666933         0.00000000       0.00000000       0.00000000         0.09919000       0.16795700       0.01664700         13
Al         2.97812438       6.83024590       3.44811094         0.00000000       0.00000000       0.00000000         0.42598300       0.52437000      -0.22014800         13
Al         6.47300616       9.89723425       0.27066801         0.00000000       0.00000000       0.00000000         0.07772800       0.11422000       0.00285400         13
Al         7.88904587       6.94465291       1.75536319         0.00000000       0.00000000       0.00000000        -0.10823700       0.00735600       0.08929000         13
Al         4.12960544       8.27915127       0.12297706         0.00000000       0.00000000       0.00000000        -0.20566400      -0.09391200      -0.06618200         13
Al         2.39504824       3.34007017       0.34688358         0.00000000       0.00000000       0.00000000         0.22271400      -0.11198600      -0.02793800         13
Al         2.18874503      10.19551442       2.26567277         0.00000000       0.00000000       0.00000000         0.01912300      -0.04562500      -0.03319700         13
Al         7.89755990       4.15458612       0.32618531         0.00000000       0.00000000       0.00000000        -0.30624000      -0.14878500       0.15699100         13
Al        10.93636798       2.77690816       1.50587871         0.00000000       0.00000000       0.00000000        -0.22181500      -0.46477100       0.20841200         13
Al         1.77649101       0.89631300      -0.90144948         0.00000000       0.00000000       0.00000000        -0.02592500      -0.17486100       0.01188100         13
Al        10.19164222       5.46885935       1.18261575         0.00000000       0.00000000       0.00000000        -0.14125600       0.06123100       0.07126300         13
Al         1.41009738       4.81787695       2.47696214         0.00000000       0.00000000       0.00000000         0.05839100      -0.13092200      -0.06739600         13
Al         6.60067372       3.30106877       2.84091484         0.00000000       0.00000000       0.00000000         0.09478800      -0.15648800      -0.03598200         13
Al         9.83748273      11.37126845       1.08220023         0.00000000       0.00000000       0.00000000        -0.01437900       0.14631100       0.04483400         13
Al         4.73942124       4.73672020       1.17534252         0.00000000       0.00000000       0.00000000         0.02560000       0.30590400      -0.15132900         13
5
pbc=[T, T, T] config_type=high_entropy dft_energy=-11.35488875 Lattice="4.27854200 0.00000000 0.00000000 0.47118600 4.57516900 0.00000000 0.77238000 0.20787800 4.09526900" Properties=species:S:1:pos:R:3:velocities:R:3:dft_forces:R:3:Z:I:1
Al         3.39722156       1.09619869       3.75780672         0.00000000       0.00000000       0.00000000         0.00237600       0.00643900       0.03369100         13
Al         0.71442176       3.17736482      -0.34335330         0.00000000       0.00000000       0.00000000        -0.02080700      -0.00640100      -0.00279900         13
Al         1.22835423       4.43907903       1.71438310         0.00000000       0.00000000       0.00000000        -0.08771400      -0.70248000      -0.24188400         13
Al         0.97924386       2.12744783       1.69309735         0.00000000       0.00000000       0.00000000         0.07327400       0.67020700       0.23681900         13
Al         1.25791848       1.09594197       3.74950057         0.00000000       0.00000000       0.00000000         0.03287100       0.03223500      -0.02582800         13
2
pbc=[T, T, T] config_type=high_entropy dft_energy=-4.42945555 Lattice="5.11545300 0.00000000 0.00000000 1.78387900 4.65540400 0.00000000 0.70462800 0.76997300 1.82610800" Properties=species:S:1:pos:R:3:velocities:R:3:dft_forces:R:3:Z:I:1
Al         3.33195321      -0.09572250       0.71832121         0.00000000       0.00000000       0.00000000         0.11965900       0.14098000       0.05801100         13
Al         1.12066992       1.91643670       1.05977893         0.00000000       0.00000000       0.00000000        -0.11965900      -0.14098000      -0.05801100         13
15
pbc=[T, T, T] config_type=high_entropy dft_energy=-54.80769892 Lattice="10.37496200 0.00000000 0.00000000 0.64895300 8.69524800 0.00000000 0.45429400 0.00521800 3.01165900" Properties=species:S:1:pos:R:3:velocities:R:3:dft_forces:R:3:Z:I:1
Al         7.83216386       4.53178456       3.61849921         0.00000000       0.00000000       0.00000000        -0.07912200       0.17225600       0.01591600         13
Al         5.01738735       4.21728409       2.51385801         0.00000000       0.00000000       0.00000000        -0.08199100       0.01624700       0.00564200         13
Al         2.70820100       5.60881567       1.32086024         0.00000000       0.00000000       0.00000000        -0.00487500      -0.04268900       0.00381500         13
Al         5.86196661       6.54870139       3.95714075         0.00000000       0.00000000       0.00000000        -0.07642700      -0.23388400       0.00616300         13
Al         8.70543142       8.93535106       0.45685267         0.00000000       0.00000000       0.00000000         0.08380500      -0.29843900      -0.03238500         13
Al         4.24692917       1.82958296       1.05702735         0.00000000       0.00000000       0.00000000        -0.28331600       0.07583800       0.05184600         13
Al         9.31006167       2.54165933       0.28852719         0.00000000       0.00000000       0.00000000         0.15896100       0.12183100       0.00397600         13
Al         7.08856828       2.27093977       2.16332447         0.00000000       0.00000000       0.00000000        -0.10184000       0.33372500       0.03451400         13
Al        10.76555265       6.98962987       0.12946420         0.00000000       0.00000000       0.00000000         0.15829300      -0.02589100      -0.02820700         13
Al         6.49798068       8.63184317       2.33852212         0.00000000       0.00000000       0.00000000        -0.10315400      -0.07744100      -0.00499700         13
Al         8.48869377       6.69046360       2.00377764         0.00000000       0.00000000       0.00000000        -0.03684900      -0.21407100       0.00493700         13
Al        10.39464466       4.64031663       1.68918379         0.00000000       0.00000000       0.00000000         0.13892300       0.19399900      -0.02009600         13
Al         3.20233806       8.14574412      -0.26719909         0.00000000       0.00000000       0.00000000        -0.12745800       0.04715300       0.02719800         13
Al         2.24739483       3.00613923       2.89829351         0.00000000       0.00000000       0.00000000         0.10077000       0.01249700      -0.02668800         13
Al         0.58305294       0.67494343       1.56584483         0.00000000       0.00000000       0.00000000         0.25428100      -0.08113100      -0.04163400         13
2
pbc=[T, T, T] config_type=high_entropy dft_energy=-6.34261330 Lattice="9.43664400 0.00000000 0.00000000 1.08446300 2.11323200 0.00000000 1.38576200 0.63855300 2.32701900" Properties=species:S:1:pos:R:3:velocities:R:3:dft_forces:R:3:Z:I:1
Al         5.79117945       2.08924331       0.81991308         0.00000000       0.00000000       0.00000000        -0.24576300       0.12734400       0.10025600         13
Al         3.05733160       2.17071422       2.10604341         0.00000000       0.00000000       0.00000000         0.24576300      -0.12734400      -0.10025600         13
15
pbc=[T, T, T] config_type=high_entropy dft_energy=-40.09224886 Lattice="9.73820100 0.00000000 0.00000000 4.30788800 8.17764700 0.00000000 0.56666300 0.89118100 6.57373500" Properties=species:S:1:pos:R:3:velocities:R:3:dft_forces:R:3:Z:I:1
Al         7.02315030       5.19208042       4.31452209         0.00000000       0.00000000       0.00000000         0.01023100      -0.12419400      -0.01870500         13
Al        11.77460292       1.55771937       2.98465235         0.00000000       0.00000000       0.00000000         0.05018200       0.15478200       0.05985000         13
Al         7.12913765       4.91606791       0.95762853         0.00000000       0.00000000       0.00000000         0.05858100      -0.00575000      -0.01138300         13
Al        10.40731790       4.79211806       3.06893604         0.00000000       0.00000000       0.00000000        -0.04064900      -0.02421500       0.02304100         13
Al         3.85483119       4.45190530       1.88556033         0.00000000       0.00000000       0.00000000         0.01074300      -0.09406900       0.14109300         13
Al         8.64367581       2.07361131       4.25605023         0.00000000       0.00000000       0.00000000         0.03336300       0.02912400       0.02967900         13
Al         5.75397168       1.89701799       0.30223312         0.00000000       0.00000000       0.00000000         0.07517100       0.04843200      -0.02633200         13
Al         5.37632988       2.03458238       3.76907731         0.00000000       0.00000000       0.00000000        -0.09520500       0.05641100       0.00400900         13
Al         9.30561796       2.41495581       0.70136610         0.00000000       0.00000000       0.00000000        -0.02705400      -0.10149500       0.04060900         13
Al        12.18179581       7.50832564       1.33811201         0.00000000       0.00000000       0.00000000        -0.10601500      -0.00205200      -0.04422300         13
Al         4.40342440      -0.67551452       2.14413223         0.00000000       0.00000000       0.00000000         0.09693200      -0.04493500      -0.04902100         13
Al         2.50475520       3.01630416      -1.04852775         0.00000000       0.00000000       0.00000000         0.03893200      -0.09997300      -0.13666200         13
Al        10.36930820       7.20513377       5.58641352         0.00000000       0.00000000       0.00000000         0.01976700       0.07487000       0.01540800         13
Al         4.09590978       7.00935554       4.42578603         0.00000000       0.00000000       0.00000000        -0.06655200       0.01427500      -0.01373700         13
Al         6.52487759       8.78777406       6.38869390         0.00000000       0.00000000       0.00000000        -0.05842700       0.11878800      -0.01362400         13
9
pbc=[T, T, T] config_type=high_entropy dft_energy=-31.29105993 Lattice="12.51872100 0.00000000 0.00000000 0.33468100 3.55142600 0.00000000 0.88332800 -0.06891000 4.11611700" Properties=species:S:1:pos:R:3:velocities:R:3:dft_forces:R:3:Z:I:1
Al         6.97926040       1.02918375       0.98806195         0.00000000       0.00000000       0.00000000         0.00029200       0.00136400      -0.00698100         13
Al         6.19648893       3.00487695       3.28423037         0.00000000       0.00000000       0.00000000         0.84546200      -0.00297400      -0.20553000         13
Al         8.97739384       2.54223331       2.79903820         0.00000000       0.00000000       0.00000000        -0.85344700       0.00495300       0.22151600         13
Al        10.49556338       2.33821189       0.40970029         0.00000000       0.00000000       0.00000000         0.00707800       0.02776800       0.00216900         13
Al         0.97964856       0.01181624      -0.15560024         0.00000000       0.00000000       0.00000000        -0.63722800       0.03882500       0.20257700         13
Al         4.04485421       1.47359133       3.62786461         0.00000000       0.00000000       0.00000000         0.00025700      -0.02209300       0.01414200         13
Al        10.79323496       0.52434262       2.46120284         0.00000000       0.00000000       0.00000000        -0.01743300       0.03642000      -0.01072900         13
Al        12.96796631       2.07015838       2.14495119         0.00000000       0.00000000       0.00000000         0.67138200      -0.06380400      -0.21606200         13
Al         3.79493415       3.27813823       1.56418002         0.00000000       0.00000000       0.00000000        -0.01636300      -0.02045800      -0.00110200         13
2
pbc=[T, T, T] config_type=high_entropy dft_energy=9.75713776 Lattice="6.29436200 0.00000000 0.00000000 0.71896000 2.60478400 0.00000000 0.56166500 0.63614500 1.38183500" Properties=species:S:1:pos:R:3:velocities:R:3:dft_forces:R:3:Z:I:1
Al         0.75895074       1.56651866       0.16527145         0.00000000       0.00000000       0.00000000        -3.77868000       0.62712300       1.01150800         13
Al         3.42939190       1.92710864       1.07588930         0.00000000       0.00000000       0.00000000         3.77868000      -0.62712300      -1.01150800         13
3
pbc=[T, T, T] config_type=high_entropy dft_energy=-7.60833880 Lattice="11.31064000 0.00000000 0.00000000 0.47701800 4.29243500 0.00000000 0.27081300 0.36348200 2.26389600" Properties=species:S:1:pos:R:3:velocities:R:3:dft_forces:R:3:Z:I:1
Al         2.32475987       2.35978286       1.72750775         0.00000000       0.00000000       0.00000000        -0.26523800       0.02761800      -0.06630600         13
Al         5.35158018       1.69178920       1.26151502         0.00000000       0.00000000       0.00000000        -0.32888300      -0.01496300      -0.03129900         13
Al        -0.61045143       0.97125100       0.65357016         0.00000000       0.00000000       0.00000000         0.59412100      -0.01265500       0.09760500         13
6
pbc=[T, T, T] config_type=high_entropy dft_energy=-18.80915889 Lattice="6.26471500 0.00000000 0.00000000 2.75989400 5.08222400 0.00000000 2.49588700 2.07049800 5.07712200" Properties=species:S:1:pos:R:3:velocities:R:3:dft_forces:R:3:Z:I:1
Al         8.23762794       1.49285917      -0.66736667         0.00000000       0.00000000       0.00000000        -0.02916400      -0.02675500       0.05040500         13
Al         9.31906696       6.13899950       4.12847106         0.00000000       0.00000000       0.00000000        -0.12772300       0.04947500      -0.01228400         13
Al         5.41031345       1.71077308       1.04924488         0.00000000       0.00000000       0.00000000         0.10107100       0.09867000      -0.03248700         13
Al         8.10045655       3.30345648       2.34631333         0.00000000       0.00000000       0.00000000         0.04743700      -0.07535400       0.00834400         13
Al         4.87239744       4.92754979       1.79352866         0.00000000       0.00000000       0.00000000        -0.04520700      -0.03186000      -0.06512800         13
Al         6.14692263       5.97168040       4.27226049         0.00000000       0.00000000       0.00000000         0.05358600      -0.01417500       0.05115000         13
2
pbc=[T, T, T] config_type=high_entropy dft_energy=-2.33603392 Lattice="5.76229000 0.00000000 0.00000000 1.46277900 4.81596800 0.00000000 0.91583200 0.59643500 1.63092100" Properties=species:S:1:pos:R:3:velocities:R:3:dft_forces:R:3:Z:I:1
Al         5.53937013       2.39042763       1.60345348         0.00000000       0.00000000       0.00000000         0.28643400       0.30451300       0.09041200         13
Al         2.32601176       4.67417829       1.16358325         0.00000000       0.00000000       0.00000000        -0.28643400      -0.30451300      -0.09041200         13
3
pbc=[T, T, T] config_type=high_entropy dft_energy=-8.10119333 Lattice="7.15608900 0.00000000 0.00000000 0.72732400 2.15134200 0.00000000 0.38631100 0.33916300 3.17243600" Properties=species:S:1:pos:R:3:velocities:R:3:dft_forces:R:3:Z:I:1
Al         1.35186449       1.95495983       0.67734894         0.00000000       0.00000000       0.00000000        -1.24276500       0.45536700       0.03181700         13
Al         5.40471545       0.57410847       0.64297668         0.00000000       0.00000000       0.00000000         1.17558200      -0.44756400      -0.04771200         13
Al         3.73800501       2.33917637       0.66641238         0.00000000       0.00000000       0.00000000         0.06718300      -0.00780300       0.01589500         13
8
pbc=[T, T, T] config_type=high_entropy dft_energy=-27.64679835 Lattice="7.75538500 0.00000000 0.00000000 0.07085300 6.19612200 0.00000000 0.54302600 1.31241800 3.56642500" Properties=species:S:1:pos:R:3:velocities:R:3:dft_forces:R:3:Z:I:1
Al         7.71674601       5.37635733       3.06338003         0.00000000       0.00000000       0.00000000        -0.01474100       0.00531400      -0.01733100         13
Al         1.60460721       3.93703454       1.26116569         0.00000000       0.00000000       0.00000000         0.00979700       0.00289900       0.01466400         13
Al         3.32874155       5.61777596      -0.50098990         0.00000000       0.00000000       0.00000000        -0.00671900       0.00825000       0.01513700         13
Al         3.80370700       3.82909748       3.04218565         0.00000000       0.00000000       0.00000000         0.01528200      -0.00569000       0.00205600         13
Al        -0.07145502       2.26117767       3.06146098         0.00000000       0.00000000       0.00000000        -0.00374800       0.01321000       0.00875100         13
Al         5.47532170       2.41449976       1.26258073         0.00000000       0.00000000       0.00000000         0.00923500      -0.01529800      -0.00244900         13
Al         5.51361227       5.50769786       1.28960826         0.00000000       0.00000000       0.00000000         0.03422400      -0.01926400      -0.01671400         13
Al         1.60857375       0.84011847       1.28688862         0.00000000       0.00000000       0.00000000        -0.04333000       0.01057900      -0.00411200         13
3
pbc=[T, T, T] config_type=high_entropy dft_energy=-7.63068211 Lattice="9.98576000 0.00000000 0.00000000 0.98789900 3.16403500 0.00000000 0.77468800 -0.04626800 2.01771600" Properties=species:S:1:pos:R:3:velocities:R:3:dft_forces:R:3:Z:I:1
Al         8.80696452       1.90536735       0.75017130         0.00000000       0.00000000       0.00000000        -0.49455800       0.14862100       0.17871100         13
Al         6.00308802       0.94489730       0.48127162         0.00000000       0.00000000       0.00000000        -0.04050100       0.01091200       0.03043700         13
Al        11.23617491       2.87766932      -0.00774545         0.00000000       0.00000000       0.00000000         0.53505900      -0.15953400      -0.20914800         13
11
pbc=[T, T, T] config_type=high_entropy dft_energy=-24.96747470 Lattice="19.38246300 0.00000000 0.00000000 0.74582700 5.52438500 0.00000000 0.13215300 2.08613600 4.74506700" Properties=species:S:1:pos:R:3:velocities:R:3:dft_forces:R:3:Z:I:1
Al         8.01226806       1.38454794       3.37393008         0.00000000       0.00000000       0.00000000        -0.01579100      -0.09752100      -0.04556400         13
Al        -0.19863554       5.43317977       1.38643114         0.00000000       0.00000000       0.00000000         0.12927600      -0.05323300       0.02307700         13
Al         5.19472759       7.48816572       3.17278809         0.00000000       0.00000000       0.00000000         0.13183300      -0.06977800      -0.01716000         13
Al        15.90991092       5.91343002       4.33701254         0.00000000       0.00000000       0.00000000        -0.11548700      -0.02317300      -0.06350400         13
Al        10.30499734       3.83800002       2.16611612         0.00000000       0.00000000       0.00000000         0.03715500       0.11753700       0.04151100         13
Al        13.82754919       3.33297689       2.59919558         0.00000000       0.00000000       0.00000000         0.00140400       0.08835600       0.06210100         13
Al        17.35176950       2.90758953       2.93339263         0.00000000       0.00000000       0.00000000        -0.12434600       0.04903000       0.00549900         13
Al        11.56294261       0.84216019       3.90068326         0.00000000       0.00000000       0.00000000        -0.06561000      -0.11546100      -0.04892300         13
Al         3.25171645       4.95445914       1.52224823         0.00000000       0.00000000       0.00000000         0.04269300       0.01068200      -0.00638000         13
Al         6.76651708       4.38847818       1.67116178         0.00000000       0.00000000       0.00000000         0.03046800       0.09415400       0.04128700         13
Al         1.33572848       4.50800370       4.60368620         0.00000000       0.00000000       0.00000000        -0.05159600      -0.00059300       0.00805500         13
5
pbc=[T, T, T] config_type=high_entropy dft_energy=-17.35220391 Lattice="9.93956900 0.00000000 0.00000000 0.63003600 2.87744200 0.00000000 0.11899200 0.19245100 3.95045100" Properties=species:S:1:pos:R:3:velocities:R:3:dft_forces:R:3:Z:I:1
Al         0.43446144       1.37735124       2.18264063         0.00000000       0.00000000       0.00000000        -0.00421800      -0.01002500      -0.00367200         13
Al        -1.71035095       0.08240815       0.25767306         0.00000000       0.00000000       0.00000000        -0.03861000       0.03838800      -0.00460700         13
Al         2.43721621       2.44344797       0.14945175         0.00000000       0.00000000       0.00000000         0.04276200      -0.03607400       0.02255400         13
Al         3.93869058       0.81167908       2.08435602         0.00000000       0.00000000       0.00000000        -0.16197200       0.03095400       0.06082400         13
Al         6.83397094       1.88461431       2.28700610         0.00000000       0.00000000       0.00000000         0.16203900      -0.02324300      -0.07509900         13
2
pbc=[T, T, T] config_type=high_entropy dft_energy=-2.45961410 Lattice="6.55140600 0.00000000 0.00000000 2.14177800 4.63760700 0.00000000 0.65452600 0.08523300 1.88633800" Properties=species:S:1:pos:R:3:velocities:R:3:dft_forces:R:3:Z:I:1
Al         4.89125569       0.05572781       1.27576942         0.00000000       0.00000000       0.00000000        -0.17826000       0.12279900       0.00052100         13
Al         3.42585489       3.39730206       0.58773684         0.00000000       0.00000000       0.00000000         0.17826000      -0.12279900      -0.00052100         13
5
pbc=[T, T, T] config_type=high_entropy dft_energy=-14.62626154 Lattice="8.55745700 0.00000000 0.00000000 0.81552700 2.47723000 0.00000000 0.44555000 0.79714900 3.18597700" Properties=species:S:1:pos:R:3:velocities:R:3:dft_forces:R:3:Z:I:1
Al         2.04192903       0.86014126       3.04080877         0.00000000       0.00000000       0.00000000         0.23859100      -0.29594900       0.17737800         13
Al         3.83917113       1.56753480       1.55392935         0.00000000       0.00000000       0.00000000        -0.27664400      -0.45722200       0.24573700         13
Al         7.47383786       1.07936054       2.86552662         0.00000000       0.00000000       0.00000000        -0.15369100       0.34492000      -0.24707900         13
Al         0.63948591       1.78671262       1.35708336         0.00000000       0.00000000       0.00000000         0.17274300       0.04210800      -0.08373100         13
Al         6.11358872       2.12747741       1.17944053         0.00000000       0.00000000       0.00000000         0.01900200       0.36614300      -0.09230500         13
3
pbc=[T, T, T] config_type=high_entropy dft_energy=-2.89147740 Lattice="6.32754200 0.00000000 0.00000000 1.21058800 6.34096900 0.00000000 0.31992500 0.05683600 1.91974800" Properties=species:S:1:pos:R:3:velocities:R:3:dft_forces:R:3:Z:I:1
Al         1.22191622       0.48400449       0.36995097         0.00000000       0.00000000       0.00000000         0.57527300       0.09310300      -0.15759500         13
Al         4.14864116      -0.39745913       1.03106149         0.00000000       0.00000000       0.00000000        -0.40570000       0.51980900       0.10973200         13
Al         3.49753297       2.48824252       0.41519847         0.00000000       0.00000000       0.00000000        -0.16957400      -0.61291200       0.04786300         13
3
pbc=[T, T, T] config_type=high_entropy dft_energy=-7.70428040 Lattice="9.41048300 0.00000000 0.00000000 1.42898800 3.93937400 0.00000000 0.04404200 0.41578100 2.20820400" Properties=species:S:1:pos:R:3:velocities:R:3:dft_forces:R:3:Z:I:1
Al         4.76321089      -0.03737152       0.56072236         0.00000000       0.00000000       0.00000000        -0.15413700       0.01770800      -0.02120400         13
Al         3.10403376       2.76375007       0.50890129         0.00000000       0.00000000       0.00000000         0.05303300       0.06333400      -0.08324000         13
Al         0.71157720       5.00066405       0.81859026         0.00000000       0.00000000       0.00000000         0.10110400      -0.08104100       0.10444500         13
2
pbc=[T, T, T] config_type=high_entropy dft_energy=-5.12064312 Lattice="8.80077900 0.00000000 0.00000000 0.46228100 3.51394400 0.00000000 0.58956400 0.50302800 2.10044600" Properties=species:S:1:pos:R:3:velocities:R:3:dft_forces:R:3:Z:I:1
Al         2.15312118       1.56248595       1.88045163         0.00000000       0.00000000       0.00000000         0.59697300       0.02511100      -0.14719900         13
Al         4.89726554       2.24859057      -0.02415580         0.00000000       0.00000000       0.00000000        -0.59697300      -0.02511100       0.14719900         13
2
pbc=[T, T, T] config_type=high_entropy dft_energy=-3.77148734 Lattice="8.22088000 0.00000000 0.00000000 1.06148400 2.55272200 0.00000000 0.20737700 0.24087400 2.06131300" Properties=species:S:1:pos:R:3:velocities:R:3:dft_forces:R:3:Z:I:1
Al         2.07404447       0.50235981       0.46806778         0.00000000       0.00000000       0.00000000         2.20393200      -0.88087200      -0.04033800         13
Al         8.95112308       2.57174862       0.53135677         0.00000000       0.00000000       0.00000000        -2.20393200       0.88087200       0.04033800         13
3
pbc=[T, T, T] config_type=high_entropy dft_energy=-1.42356717 Lattice="3.34826000 0.00000000 0.00000000 1.47424400 3.69793100 0.00000000 0.09107400 1.36800800 2.81288400" Properties=species:S:1:pos:R:3:velocities:R:3:dft_forces:R:3:Z:I:1
Al         2.49145280       2.14461850       1.96402856         0.00000000       0.00000000       0.00000000         0.10923300       0.15933100      -0.14124900         13
Al         4.11682134       1.46950108       0.55448163         0.00000000       0.00000000       0.00000000         0.20212000      -0.15463800      -0.02175900         13
Al         3.17758874       3.31148120       0.54949093         0.00000000       0.00000000       0.00000000        -0.31135300      -0.00469200       0.16300800         13
2
pbc=[T, T, T] config_type=high_entropy dft_energy=-5.99757794 Lattice="4.61806300 0.00000000 0.00000000 1.27363500 4.18746000 0.00000000 0.46836300 0.25455000 3.15807100" Properties=species:S:1:pos:R:3:velocities:R:3:dft_forces:R:3:Z:I:1
Al         3.43804713       1.51664685       0.25817151         0.00000000       0.00000000       0.00000000        -0.20307900      -0.12569700       0.04338800         13
Al         1.14548441      -0.09553393       1.84510280         0.00000000       0.00000000       0.00000000         0.20307900       0.12569700      -0.04338800         13
4
pbc=[T, T, T] config_type=high_entropy dft_energy=-12.31312902 Lattice="8.69193800 0.00000000 0.00000000 1.34888100 6.72099600 0.00000000 0.74620000 1.06635600 2.12337700" Properties=species:S:1:pos:R:3:velocities:R:3:dft_forces:R:3:Z:I:1
Al         4.80678174       2.53521867       1.94138930         0.00000000       0.00000000       0.00000000        -0.28868100       0.06814300       0.08819800         13
Al         2.68531676       7.17761648       1.15439691         0.00000000       0.00000000       0.00000000        -0.12073500       0.08508800      -0.12645600         13
Al         2.00350713       3.76684653       1.08511532         0.00000000       0.00000000       0.00000000         0.12840500      -0.09610500       0.11462200         13
Al         7.96679608       2.63788185       2.23396580         0.00000000       0.00000000       0.00000000         0.28101000      -0.05712600      -0.07636400         13
3
pbc=[T, T, T] config_type=high_entropy dft_energy=-8.30062202 Lattice="7.10531900 0.00000000 0.00000000 0.66558900 6.36895200 0.00000000 0.76759900 0.45479300 2.21818800" Properties=species:S:1:pos:R:3:velocities:R:3:dft_forces:R:3:Z:I:1
Al         5.17113574       3.21238781       0.58452839         0.00000000       0.00000000       0.00000000         0.15547700      -0.09596000      -0.05900200         13
Al         7.54261575       6.73392512       1.95449950         0.00000000       0.00000000       0.00000000         0.01511200      -0.00044800      -0.02448400         13
Al         1.61281661       3.33895507       0.46592350         0.00000000       0.00000000       0.00000000        -0.17058900       0.09640900       0.08348500         13
20
pbc=[T, T, T] config_type=high_entropy dft_energy=-66.92262620 Lattice="7.03199500 0.00000000 0.00000000 3.18991400 6.96819100 0.00000000 0.01780400 2.75890100 10.01289000" Properties=species:S:1:pos:R:3:velocities:R:3:dft_forces:R:3:Z:I:1
Al         5.23871091       3.91517730       2.85177045         0.00000000       0.00000000       0.00000000         0.01780000       0.10442100       0.00876600         13
Al         3.27223220       1.87308671       2.37678754         0.00000000       0.00000000       0.00000000        -0.02663600      -0.17221800       0.00924800         13
Al         4.33194414       6.32153154       4.20411702         0.00000000       0.00000000       0.00000000        -0.10376100       0.05757200       0.21349600         13
Al         5.01940636       6.29203794       1.26052048         0.00000000       0.00000000       0.00000000         0.08640700       0.22515500      -0.04928300         13
Al         9.65273171       4.83472658       2.25329848         0.00000000       0.00000000       0.00000000        -0.13536900       0.09980800      -0.06760400         13
Al         2.29590917       8.50551498       1.51254556         0.00000000       0.00000000       0.00000000         0.13447700      -0.23135200      -0.09863000         13
Al         7.18729365       6.04545602       3.32028211         0.00000000       0.00000000       0.00000000         0.13179900       0.01405600       0.11171000         13
Al         6.11974778       4.30317516       5.59100279         0.00000000       0.00000000       0.00000000         0.10929000       0.07154000       0.04833400         13
Al         5.71766675       7.04222507       6.76629466         0.00000000       0.00000000       0.00000000         0.11092400       0.00363500       0.00933000         13
Al         2.61853269       6.02258998      -0.46846833         0.00000000       0.00000000       0.00000000        -0.05825500       0.09948900       0.07750900         13
Al         7.17939898       7.00971296      10.72889036         0.00000000       0.00000000       0.00000000         0.03873500       0.06502700       0.06140800         13
Al         8.88118434       5.99586729       6.42161358         0.00000000       0.00000000       0.00000000        -0.28460600      -0.01499800      -0.32284400         13
Al         4.30892833       3.59410506       0.11024649         0.00000000       0.00000000       0.00000000         0.04868200      -0.01557700      -0.01055400         13
Al         7.86832406       9.17108120       7.18714985         0.00000000       0.00000000       0.00000000        -0.06008500      -0.02988400      -0.02960800         13
Al         7.82927385       2.93150885       3.54658229         0.00000000       0.00000000       0.00000000        -0.02820400      -0.02457500      -0.06472000         13
Al         5.40687354       1.49968911       4.43995219         0.00000000       0.00000000       0.00000000        -0.00738500      -0.28243500      -0.00440800         13
Al        -0.56887105       4.72295133       8.56429964         0.00000000       0.00000000       0.00000000        -0.01000700       0.04522200      -0.14664500         13
Al         3.28703145       3.59492671       4.93860418         0.00000000       0.00000000       0.00000000        -0.09641100       0.04707800       0.17020500         13
Al         7.15818059      10.42474285       9.73403112         0.00000000       0.00000000       0.00000000        -0.05304000      -0.08933000       0.02944700         13
Al         1.70773325       2.79971287       7.81034461         0.00000000       0.00000000       0.00000000         0.18564300       0.02736600       0.05484200         13
3
pbc=[T, T, T] config_type=high_entropy dft_energy=-8.06028082 Lattice="7.00208600 0.00000000 0.00000000 0.61199300 6.36582100 0.00000000 1.48881500 0.44841000 2.65251900" Properties=species:S:1:pos:R:3:velocities:R:3:dft_forces:R:3:Z:I:1
Al         6.26205367       1.04346495       1.67223283         0.00000000       0.00000000       0.00000000         0.05662000      -0.00706500      -0.03985200         13
Al         2.41278532       2.30603101       1.29258937         0.00000000       0.00000000       0.00000000        -0.10113600      -0.26621600       0.07873900         13
Al         1.97913625      -0.89666946       0.31282922         0.00000000       0.00000000       0.00000000         0.04451600       0.27328100      -0.03888700         13
2
pbc=[T, T, T] config_type=high_entropy dft_energy=-5.39427598 Lattice="4.56884600 0.00000000 0.00000000 0.88012900 4.75470200 0.00000000 0.16833500 0.43251500 2.19878900" Properties=species:S:1:pos:R:3:velocities:R:3:dft_forces:R:3:Z:I:1
Al         1.80832471       5.01562124       1.29487761         0.00000000       0.00000000       0.00000000        -0.02280600       0.00296600       0.03401600         13
Al         3.64927332       2.65832147       1.26530248         0.00000000       0.00000000       0.00000000         0.02280600      -0.00296600      -0.03401600         13
9
pbc=[T, T, T] config_type=high_entropy dft_energy=-10.56908302 Lattice="6.36425000 0.00000000 0.00000000 1.10360700 6.33331800 0.00000000 1.01430600 1.21647300 3.20671500" Properties=species:S:1:pos:R:3:velocities:R:3:dft_forces:R:3:Z:I:1
Al         6.84736378       3.76607452       2.57833092         0.00000000       0.00000000       0.00000000        13.29442600      -6.49568700      -1.84683500         13
Al         4.86119980       4.34095485       2.99614224         0.00000000       0.00000000       0.00000000        -5.97035200       4.08921000       0.94532200         13
Al         4.54690558       1.22925071       0.36851775         0.00000000       0.00000000       0.00000000         2.06201200     -10.51719200       3.30529600         13
Al         2.83971038       4.25996770       3.65680269         0.00000000       0.00000000       0.00000000        -7.27140000      -2.88007400       3.30437000         13
Al         4.02352571       2.56510479       2.01159409         0.00000000       0.00000000       0.00000000        -6.46977800      -7.70027000       4.64350100         13
Al         2.75795380       7.14557506       1.78241866         0.00000000       0.00000000       0.00000000        -0.25189100      -0.50618700       0.45419600         13
Al         6.18953790       5.58513677       1.97750843         0.00000000       0.00000000       0.00000000         2.40623100      12.20584600      -4.24232100         13
Al         3.06310032       4.41238849       1.53337300         0.00000000       0.00000000       0.00000000        -1.59281200       8.82286600      -2.94067000         13
Al         5.41524894       3.75822342       1.03688759         0.00000000       0.00000000       0.00000000         3.79356400       2.98148900      -3.62285900         13
22
pbc=[T, T, T] config_type=high_entropy dft_energy=-71.44436602 Lattice="7.67380200 0.00000000 0.00000000 0.69240500 7.69892600 0.00000000 2.37751800 2.83709600 4.99532500" Properties=species:S:1:pos:R:3:velocities:R:3:dft_forces:R:3:Z:I:1
Al         3.56406291       8.19236517       2.75859286         0.00000000       0.00000000       0.00000000         0.18640900      -0.27367000      -0.26696500         13
Al         7.25819987       3.67582503       1.65914655         0.00000000       0.00000000       0.00000000         0.29525000       0.17183000      -0.02897300         13
Al         8.32138683       7.69698877       1.93508719         0.00000000       0.00000000       0.00000000         0.40151300       0.23171500      -0.02024600         13
Al         3.52358247       3.30527517       0.72574908         0.00000000       0.00000000       0.00000000        -0.26134700      -0.23681900       0.37583500         13
Al         3.86455474       7.56540479       5.45264594         0.00000000       0.00000000       0.00000000         0.25859800       0.00682400       0.44041300         13
Al         9.91980773      10.11259207       2.53453982         0.00000000       0.00000000       0.00000000        -0.52452000      -0.03739300      -0.37192700         13
Al         1.90040675       6.60392878       3.99037284         0.00000000       0.00000000       0.00000000        -0.40929600      -0.20408000      -0.27821500         13
Al         4.47323568       6.04666523       3.53600403         0.00000000       0.00000000       0.00000000        -0.11160200       0.30506600       0.36704700         13
Al         5.87592429       8.03715653       3.84224901         0.00000000       0.00000000       0.00000000         0.22098000       0.19548700      -0.29083300         13
Al         6.94744536       2.08170524       3.72385316         0.00000000       0.00000000       0.00000000        -0.19574900       0.03256200      -0.05066800         13
Al         2.58718315       4.53356674       2.77318424         0.00000000       0.00000000       0.00000000        -0.16104200       0.45829700      -0.05802500         13
Al         8.50779605       3.94219108       4.52141573         0.00000000       0.00000000       0.00000000        -0.02114000       0.19088200      -0.13553100         13
Al         4.02360859       8.60973891       0.24186792         0.00000000       0.00000000       0.00000000         0.10630600       0.22087600      -0.17118800         13
Al         7.10989071       5.76232322       3.31697334         0.00000000       0.00000000       0.00000000         0.39329000      -0.29569500      -0.00109600         13
Al        11.00841044       6.29695663       1.14916907         0.00000000       0.00000000       0.00000000        -0.25856500       0.01260600       0.14282500         13
Al         5.11101965       3.97257404       2.76029574         0.00000000       0.00000000       0.00000000         0.26042400      -0.32612600      -0.12375000         13
Al         3.67831060       2.45289789       4.16575940         0.00000000       0.00000000       0.00000000         0.00499900      -0.16582900       0.19563400         13
Al         5.41345472       4.86310442       0.35658078         0.00000000       0.00000000       0.00000000         0.22327400      -0.23086600      -0.09231600         13
Al         5.35191688       1.81610079       1.73085340         0.00000000       0.00000000       0.00000000        -0.07380300      -0.09541600       0.17430800         13
Al         9.83594323       9.11806999       4.85736656         0.00000000       0.00000000       0.00000000        -0.36975600      -0.06352200       0.20612600         13
Al         5.75513057       7.07657152       1.49363278         0.00000000       0.00000000       0.00000000         0.02124700      -0.06549000      -0.13178000         13
Al         3.20390363       4.68070110       5.27396659         0.00000000       0.00000000       0.00000000         0.01452800       0.16876100       0.11932400         13
3
pbc=[T, T, T] config_type=high_entropy dft_energy=-9.80221597 Lattice="4.93327400 0.00000000 0.00000000 0.21879200 6.10285300 0.00000000 1.04799100 0.47541400 2.06912200" Properties=species:S:1:pos:R:3:velocities:R:3:dft_forces:R:3:Z:I:1
Al         3.23475913       2.08741984       1.72045481         0.00000000       0.00000000       0.00000000        -0.04809000      -0.02453600       0.02709800         13
Al         3.42760386       5.01557086       2.39382984         0.00000000       0.00000000       0.00000000         0.03192900       0.03188700      -0.05166800         13
Al         4.63308389       0.02783034      -0.02869930         0.00000000       0.00000000       0.00000000         0.01616100      -0.00735100       0.02457000         13
2
pbc=[T, T, T] config_type=high_entropy dft_energy=-2.93599314 Lattice="7.92744100 0.00000000 0.00000000 1.48348500 3.18444000 0.00000000 0.91246100 -0.15647700 1.77043600" Properties=species:S:1:pos:R:3:velocities:R:3:dft_forces:R:3:Z:I:1
Al         6.60188532      -0.19065454      -0.00965996         0.00000000       0.00000000       0.00000000        -0.20186700       0.14690800       0.09612700         13
Al         4.06386188       1.44709391       0.30149744         0.00000000       0.00000000       0.00000000         0.20186700      -0.14690800      -0.09612700         13
3
pbc=[T, T, T] config_type=high_entropy dft_energy=-9.76050319 Lattice="5.89433800 0.00000000 0.00000000 2.21713900 5.23376200 0.00000000 0.75636800 0.31193400 2.34945500" Properties=species:S:1:pos:R:3:velocities:R:3:dft_forces:R:3:Z:I:1
Al         3.86595396       1.76828024       2.45096453         0.00000000       0.00000000       0.00000000        -0.10966600       0.06167900       0.00258600         13
Al         5.16030390       4.26901814       1.75280041         0.00000000       0.00000000       0.00000000         0.08300600       0.10482100      -0.01384500         13
Al         7.33217990       3.91729854      -0.35111899         0.00000000       0.00000000       0.00000000         0.02665900      -0.16650000       0.01125900         13
13
pbc=[T, T, T] config_type=high_entropy dft_energy=-36.79177808 Lattice="6.08974900 0.00000000 0.00000000 0.74575900 7.05139300 0.00000000 -1.61613200 0.58463300 9.69708600" Properties=species:S:1:pos:R:3:velocities:R:3:dft_forces:R:3:Z:I:1
Al         5.50985049       5.89150160       5.01521617         0.00000000       0.00000000       0.00000000         0.07613400      -0.05866200       0.07713700         13
Al         4.34376445       4.44167992       9.10544503         0.00000000       0.00000000       0.00000000        -0.04294700      -0.03821100       0.04490800         13
Al         1.46945523       1.48856249       1.33361569         0.00000000       0.00000000       0.00000000        -0.09452900      -0.03222000      -0.10115100         13
Al         5.84366867       6.23688259       1.80936110         0.00000000       0.00000000       0.00000000         0.08347500      -0.01372400      -0.03739900         13
Al         3.81790178       2.84326178       5.78018019         0.00000000       0.00000000       0.00000000         0.05504000       0.10060200       0.05492500         13
Al         4.52137630       2.72122397       2.39193356         0.00000000       0.00000000       0.00000000        -0.00551300       0.00353900      -0.16665300         13
Al         7.40192224       5.64494184      10.04739036         0.00000000       0.00000000       0.00000000         0.02535100       0.03438400      -0.05673600         13
Al         8.50474537       5.11758061       3.66001439         0.00000000       0.00000000       0.00000000         0.06709500       0.02265700       0.09675000         13
Al         9.27230105       8.76252082       9.05791538         0.00000000       0.00000000       0.00000000        -0.02029600       0.00585900      -0.00333000         13
Al         6.86297238       1.55287653       4.62595823         0.00000000       0.00000000       0.00000000        -0.13837200      -0.03768200       0.12749900         13
Al         6.90206010       3.80124701       7.13151493         0.00000000       0.00000000       0.00000000        -0.02237000      -0.00706600      -0.00718600         13
Al         8.97754240       6.41413250       6.79958428         0.00000000       0.00000000       0.00000000        -0.03936800      -0.06145800       0.03161500         13
Al         6.12621708       7.81028495       7.84045006         0.00000000       0.00000000       0.00000000         0.05630200       0.08198200      -0.06037700         13
2
pbc=[T, T, T] config_type=high_entropy dft_energy=1.93242286 Lattice="5.19139600 0.00000000 0.00000000 1.54198300 4.42895300 0.00000000 0.85307900 -0.27254500 1.54653400" Properties=species:S:1:pos:R:3:velocities:R:3:dft_forces:R:3:Z:I:1
Al         5.53551192       0.68284051       0.10132091         0.00000000       0.00000000       0.00000000         0.46316300       0.41353900      -0.11228500         13
Al         5.74500200       3.41660228       1.64604383         0.00000000       0.00000000       0.00000000        -0.46316300      -0.41353900       0.11228500         13
2
pbc=[T, T, T] config_type=high_entropy dft_energy=-5.54223295 Lattice="8.55854400 0.00000000 0.00000000 0.46330600 3.07064500 0.00000000 1.10271500 0.40639300 2.74678800" Properties=species:S:1:pos:R:3:velocities:R:3:dft_forces:R:3:Z:I:1
Al        -0.28730993       2.81378902       0.47807705         0.00000000       0.00000000       0.00000000         0.38073400      -0.06924600      -0.15291400         13
Al         3.69759714       1.71087188       1.66396547         0.00000000       0.00000000       0.00000000        -0.38073400       0.06924600       0.15291400         13
2
pbc=[T, T, T] config_type=high_entropy dft_energy=-5.47682934 Lattice="5.69234900 0.00000000 0.00000000 2.41809100 5.67482500 0.00000000 0.23781600 1.25818300 2.42248000" Properties=species:S:1:pos:R:3:velocities:R:3:dft_forces:R:3:Z:I:1
Al         2.39053623       1.83920770       0.78462097         0.00000000       0.00000000       0.00000000         0.14954900       0.03477800      -0.03165500         13
Al         5.33456421       4.00440005       1.08491512         0.00000000       0.00000000       0.00000000        -0.14954900      -0.03477800       0.03165500         13
2
pbc=[T, T, T] config_type=high_entropy dft_energy=-5.36168714 Lattice="5.31130400 0.00000000 0.00000000 1.74884600 5.02028000 0.00000000 0.28692400 0.35064300 2.23861600" Properties=species:S:1:pos:R:3:velocities:R:3:dft_forces:R:3:Z:I:1
Al         4.48935507       3.70221432       0.74316927         0.00000000       0.00000000       0.00000000        -0.28604400      -0.16752100       0.04163700         13
Al         1.79865652       1.76171120       0.76373320         0.00000000       0.00000000       0.00000000         0.28604400       0.16752100      -0.04163700         13
3
pbc=[T, T, T] config_type=high_entropy dft_energy=-9.92300011 Lattice="5.70909900 0.00000000 0.00000000 2.05394700 5.56408900 0.00000000 1.29295900 0.25318400 2.25879700" Properties=species:S:1:pos:R:3:velocities:R:3:dft_forces:R:3:Z:I:1
Al         2.86109982       4.28570216       0.42761972         0.00000000       0.00000000       0.00000000         0.00564000      -0.00056500       0.00290400         13
Al         4.92574371       0.54247253       2.60262256         0.00000000       0.00000000       0.00000000         0.11169800      -0.17636600      -0.05166800         13
Al         5.81327165       2.63114827       0.51541142         0.00000000       0.00000000       0.00000000        -0.11733700       0.17693100       0.04876400         13
5
pbc=[T, T, T] config_type=high_entropy dft_energy=-11.68221275 Lattice="7.14929500 0.00000000 0.00000000 3.17929300 6.00919400 0.00000000 0.37923600 0.71673400 1.91770600" Properties=species:S:1:pos:R:3:velocities:R:3:dft_forces:R:3:Z:I:1
Al         3.86652242       1.88831077      -0.81829625         0.00000000       0.00000000       0.00000000         0.07910400      -0.05791000       0.09904000         13
Al         6.57819174       1.39849817      -0.00031553         0.00000000       0.00000000       0.00000000         0.00388600       0.08315700      -0.11990200         13
Al         4.37200994       5.52109853       0.99821747         0.00000000       0.00000000       0.00000000         0.20935800      -0.03880200       0.03260200         13
Al         2.05299368       4.14077917       2.17799415         0.00000000       0.00000000       0.00000000        -0.16199300      -0.10694900       0.10495200         13
Al         7.16981783       5.73177918       1.20176611         0.00000000       0.00000000       0.00000000        -0.13035400       0.12050300      -0.11669100         13
2
pbc=[T, T, T] config_type=high_entropy dft_energy=-5.70642938 Lattice="8.79230600 0.00000000 0.00000000 0.40468100 2.34625000 0.00000000 1.29040200 -1.13619400 3.13030000" Properties=species:S:1:pos:R:3:velocities:R:3:dft_forces:R:3:Z:I:1
Al         8.64856235       2.11631494       1.03966943         0.00000000       0.00000000       0.00000000        -0.55841400       0.13194800       0.21268200         13
Al         5.19159092       1.07923349       0.61443134         0.00000000       0.00000000       0.00000000         0.55841400      -0.13194800      -0.21268200         13
11
pbc=[T, T, T] config_type=high_entropy dft_energy=-22.32170525 Lattice="5.12287000 0.00000000 0.00000000 2.53254400 4.74161900 0.00000000 0.31449100 -2.33783500 5.84589600" Properties=species:S:1:pos:R:3:velocities:R:3:dft_forces:R:3:Z:I:1
Al         5.28022031       5.35294847       2.64092306         0.00000000       0.00000000       0.00000000        -0.86945400       0.92034800      -2.47769300         13
Al         2.59853718       5.30329761       2.73169422         0.00000000       0.00000000       0.00000000         0.82503000      -0.47865600      -2.44927000         13
Al         6.64910085       5.29406850       5.13149193         0.00000000       0.00000000       0.00000000         0.47811900      -3.04181100       6.95983100         13
Al         4.01959247       4.15554155       4.12785008         0.00000000       0.00000000       0.00000000        -0.27022600      -0.02071600       0.74832800         13
Al         5.40284779       7.62889970       5.68396642         0.00000000       0.00000000       0.00000000        -1.57685600       0.47092100       1.50477500         13
Al         3.99536916       2.10761693       3.81343689         0.00000000       0.00000000       0.00000000        -0.26019200       2.33584200      -5.22992200         13
Al         1.28135651       1.76293208       1.25138792         0.00000000       0.00000000       0.00000000         0.00198700       2.72960900       0.14580600         13
Al         1.36509383       3.60992936       3.65872190         0.00000000       0.00000000       0.00000000         0.23995000      -2.79874500      -1.62862800         13
Al         1.51047225       1.47399612       4.37451270         0.00000000       0.00000000       0.00000000        -0.04895800       2.07041300       2.32368200         13
Al         6.41424882       3.98585946       1.29782220         0.00000000       0.00000000       0.00000000        -0.05961100      -1.75250600      -2.02643800         13
Al         0.20197429       2.93004454       5.63990985         0.00000000       0.00000000       0.00000000         1.54021100      -0.43469800       2.12952900         13
20
pbc=[T, T, T] config_type=high_entropy dft_energy=-59.73364559 Lattice="13.81294700 0.00000000 0.00000000 1.87606400 12.69605600 0.00000000 1.07884600 1.77734400 3.39973200" Properties=species:S:1:pos:R:3:velocities:R:3:dft_forces:R:3:Z:I:1
Al        13.80371289       8.84378134       2.64638771         0.00000000       0.00000000       0.00000000        -0.14106100      -0.15142400       0.12121400         13
Al         2.90756880       7.36384844       2.35108003         0.00000000       0.00000000       0.00000000         0.15385000       0.09405700      -0.06899900         13
Al        13.90748181      11.09894242      -0.83084182         0.00000000       0.00000000       0.00000000        -0.04824000       0.02437700      -0.00463700         13
Al         9.64297445      13.71001269       1.62580786         0.00000000       0.00000000       0.00000000        -0.01191600      -0.04115700       0.01983500         13
Al         4.39646267       4.86892433       0.80851154         0.00000000       0.00000000       0.00000000         0.07255300       0.15542300      -0.10905700         13
Al         9.76121403       3.57028246       2.00030876         0.00000000       0.00000000       0.00000000        -0.00975500       0.05744300      -0.02027100         13
Al         5.04181030       9.84439120       2.74958105         0.00000000       0.00000000       0.00000000         0.02862800       0.00493500      -0.01075100         13
Al         8.59968503       6.34742129       3.31365243         0.00000000       0.00000000       0.00000000         0.06472000       0.05638400      -0.05045700         13
Al         6.23475570       3.54465019       3.18688469         0.00000000       0.00000000       0.00000000         0.12681300      -0.00498500      -0.03933800         13
Al        13.37861484       4.05362897       0.53536362         0.00000000       0.00000000       0.00000000        -0.10350000      -0.00210900       0.03092500         13
Al        12.52810574       3.20964157       3.58290821         0.00000000       0.00000000       0.00000000        -0.01471300       0.12760000      -0.07757600         13
Al         9.56572096       7.26801831       0.21075442         0.00000000       0.00000000       0.00000000        -0.02737500      -0.00956200       0.01326100         13
Al         6.49642185       7.46282239       1.12249825         0.00000000       0.00000000       0.00000000        -0.04335700      -0.00702800       0.02748900         13
Al        12.06180961      11.53378490       1.89903873         0.00000000       0.00000000       0.00000000        -0.06324100      -0.02272900       0.03034600         13
Al         4.54446614      12.90184851       1.41267233         0.00000000       0.00000000       0.00000000        -0.02583700      -0.15433400       0.08750500         13
Al         9.03199123      10.41905977       1.14661424         0.00000000       0.00000000       0.00000000         0.04596400       0.04702900      -0.04072300         13
Al        11.74711587       6.22768794       2.32314630         0.00000000       0.00000000       0.00000000        -0.03914900      -0.01942700       0.01976200         13
Al         6.09759991      10.52537522      -0.24658717         0.00000000       0.00000000       0.00000000        -0.01223500      -0.11171500       0.06010000         13
Al        15.83374143       3.24918041       2.43234926         0.00000000       0.00000000       0.00000000        -0.06734300       0.00140100       0.02649500         13
Al         2.44537947      10.35832082       1.05820507         0.00000000       0.00000000       0.00000000         0.11519300      -0.04417700      -0.01512600         13
23
pbc=[T, T, T] config_type=high_entropy dft_energy=-76.95566831 Lattice="14.69275800 0.00000000 0.00000000 1.23653600 6.26127500 0.00000000 1.40024200 2.00629000 4.56568300" Properties=species:S:1:pos:R:3:velocities:R:3:dft_forces:R:3:Z:I:1
Al         5.49837922       6.88853970       3.50246432         0.00000000       0.00000000       0.00000000         1.40528900       0.21336300       0.65080400         13
Al        10.84447584       4.65107283       4.18594213         0.00000000       0.00000000       0.00000000        -0.63466100       0.37474300       0.76958100         13
Al         3.00678926       6.43554530       3.02261071         0.00000000       0.00000000       0.00000000        -0.61457300      -1.98165500       0.62554200         13
Al         9.26926049       6.68510569       0.08159605         0.00000000       0.00000000       0.00000000        -0.10466000      -0.26257500       0.38457900         13
Al        16.21094122       5.72125143       5.10804124         0.00000000       0.00000000       0.00000000        -0.80000300       1.19208500      -0.05534000         13
Al        12.69716833       4.18197098       2.45871818         0.00000000       0.00000000       0.00000000         1.13336200       1.49455200      -0.05925300         13
Al         2.75983404       2.97091894       0.19198429         0.00000000       0.00000000       0.00000000        -0.22924600      -0.25921200       0.10261200         13
Al        13.37716346       5.20911832       4.70704176         0.00000000       0.00000000       0.00000000         0.38188900       0.75660500      -1.19680600         13
Al        15.61284565       1.51323931       1.29231150         0.00000000       0.00000000       0.00000000        -1.06232900       0.91556200      -1.42106500         13
Al         6.61857783       4.19398672       4.99108483         0.00000000       0.00000000       0.00000000         1.00727900       2.06539000       1.85739400         13
Al         5.63378661       4.45787828       2.70231347         0.00000000       0.00000000       0.00000000        -0.93318600      -0.92971700      -1.80050000         13
Al         8.24503586       4.02046411       2.95919254         0.00000000       0.00000000       0.00000000         0.54237100       0.31687800      -0.66613600         13
Al         3.27628284       0.56094581       0.98825588         0.00000000       0.00000000       0.00000000         0.46839100      -0.97106800      -0.60585400         13
Al         7.06095079       6.24247067       1.52686332         0.00000000       0.00000000       0.00000000         1.38940200      -0.59719900       0.79964500         13
Al         1.31747642       0.50560091      -1.78127399         0.00000000       0.00000000       0.00000000         1.02979900       2.20235600       0.56357000         13
Al        10.37002110       4.81754045       1.52720221         0.00000000       0.00000000       0.00000000        -0.63739400       0.92754200      -0.60069800         13
Al         2.29563682       5.42726084       0.64992876         0.00000000       0.00000000       0.00000000        -0.34069200      -0.56844900       0.88444000         13
Al        15.14502036       5.87073442       2.51947315         0.00000000       0.00000000       0.00000000        -0.55663600      -1.19717000       0.47669500         13
Al        12.49499607       6.44614143       0.16472729         0.00000000       0.00000000       0.00000000        -0.72351200      -0.08868800       0.40364400         13
Al        13.20444951       1.88219003       1.82291045         0.00000000       0.00000000       0.00000000        -0.06561300      -1.19655400       0.24945700         13
Al        15.05830643       2.59360311       3.82575107         0.00000000       0.00000000       0.00000000        -0.03355000       0.29143500       0.23771200         13
Al         6.45991698       2.10744219       3.64859714         0.00000000       0.00000000       0.00000000         0.39268900      -1.46660800      -1.70628400         13
Al        10.75476323       2.41603734       2.38104656         0.00000000       0.00000000       0.00000000        -1.01441400      -1.23161600       0.10625900         13
2
pbc=[T, T, T] config_type=high_entropy dft_energy=-4.21416575 Lattice="7.82141100 0.00000000 0.00000000 0.61383200 2.48221100 0.00000000 0.31020100 0.28205300 2.08482400" Properties=species:S:1:pos:R:3:velocities:R:3:dft_forces:R:3:Z:I:1
Al         2.20175300       0.32977607       2.07302431         0.00000000       0.00000000       0.00000000         1.95631200      -0.48574300      -0.28391400         13
Al         7.71891748       0.70435706       1.25206394         0.00000000       0.00000000       0.00000000        -1.95631200       0.48574300       0.28391400         13
4
pbc=[T, T, T] config_type=high_entropy dft_energy=-13.18533438 Lattice="11.18046400 0.00000000 0.00000000 0.86961400 3.34107100 0.00000000 0.21474500 0.89112400 2.33614300" Properties=species:S:1:pos:R:3:velocities:R:3:dft_forces:R:3:Z:I:1
Al         6.26166665       4.51104003       2.02547476         0.00000000       0.00000000       0.00000000         0.19534300      -0.04286400      -0.01764300         13
Al         8.51357473       3.69087440       0.76106756         0.00000000       0.00000000       0.00000000         0.08340700       0.02377300      -0.03298100         13
Al         3.88399627       3.37637997       1.32748081         0.00000000       0.00000000       0.00000000        -0.49266700       0.03173900       0.03488500         13
Al        10.14571195       0.32178297       1.85123380         0.00000000       0.00000000       0.00000000         0.21391700      -0.01264800       0.01573900         13
3
pbc=[T, T, T] config_type=high_entropy dft_energy=-8.97623219 Lattice="5.91544500 0.00000000 0.00000000 1.67674900 5.55691400 0.00000000 0.38836000 -0.06516900 2.36393600" Properties=species:S:1:pos:R:3:velocities:R:3:dft_forces:R:3:Z:I:1
Al         6.01772612       3.89599438      -0.08377952         0.00000000       0.00000000       0.00000000        -0.11074700       0.05749700       0.04638000         13
Al         1.76674470      -0.50511909       1.76371494         0.00000000       0.00000000       0.00000000         0.23566900      -0.13357400      -0.09683800         13
Al         3.36895979       1.99616802       0.28862309         0.00000000       0.00000000       0.00000000        -0.12492200       0.07607700       0.05045800         13
2
pbc=[T, T, T] config_type=high_entropy dft_energy=-4.54217379 Lattice="9.43835600 0.00000000 0.00000000 1.67342500 3.45220700 0.00000000 0.37849400 0.71373200 2.04796000" Properties=species:S:1:pos:R:3:velocities:R:3:dft_forces:R:3:Z:I:1
Al         8.39204355       2.68229856       0.44888215         0.00000000       0.00000000       0.00000000        -0.36681200       0.19630100      -0.02286300         13
Al         3.61124714       1.07951641       0.65675931         0.00000000       0.00000000       0.00000000         0.36681200      -0.19630100       0.02286300         13
25
pbc=[T, T, T] config_type=high_entropy dft_energy=-85.13274591 Lattice="10.94121100 0.00000000 0.00000000 1.97578300 10.69204500 0.00000000 1.81636100 0.32755200 5.02057400" Properties=species:S:1:pos:R:3:velocities:R:3:dft_forces:R:3:Z:I:1
Al         4.17869393       2.77915473       1.34669597         0.00000000       0.00000000       0.00000000        -0.02259800      -0.00544300       0.00952200         13
Al         8.96445622       5.85458311       1.55016552         0.00000000       0.00000000       0.00000000         0.00251500       0.05351200       0.02683800         13
Al         8.96308309       7.23683534       4.32301151         0.00000000       0.00000000       0.00000000        -0.00938500       0.05263500       0.00332000         13
Al         5.75136481       5.48521384       1.73995092         0.00000000       0.00000000       0.00000000        -0.01721100       0.01573400       0.00150400         13
Al         3.63094873       9.55475366       5.03870754         0.00000000       0.00000000       0.00000000         0.03419000      -0.06961500      -0.02726900         13
Al         4.20809223       4.16077025       4.15386784         0.00000000       0.00000000       0.00000000         0.02689800       0.02562700       0.00413800         13
Al        10.67775641       0.07008450       2.81475538         0.00000000       0.00000000       0.00000000         0.18301900      -0.32072700      -0.05708500         13
Al         5.37491540       9.33924379      -0.11356419         0.00000000       0.00000000       0.00000000        -0.02519000      -0.03641900      -0.00776600         13
Al         9.67383378       8.64216499       0.18686947         0.00000000       0.00000000       0.00000000         0.01243300      -0.07344800      -0.01191100         13
Al         1.68296730       2.43808127       3.30249849         0.00000000       0.00000000       0.00000000         0.06602500       0.04304900      -0.12553100         13
Al         5.94558577       0.37111737       0.71964689         0.00000000       0.00000000       0.00000000        -0.09923000      -0.04259400       0.13556700         13
Al        -0.12562392       3.45268987       1.05962492         0.00000000       0.00000000       0.00000000        -0.00508300       0.12730900      -0.09360600         13
Al         5.82768014       4.03653493      -1.02780093         0.00000000       0.00000000       0.00000000        -0.03716600       0.05932700       0.02336100         13
Al         2.40850964       5.20944971       1.92282751         0.00000000       0.00000000       0.00000000         0.03506000       0.00139700      -0.03717000         13
Al         7.16469795       8.28806711       2.09659364         0.00000000       0.00000000       0.00000000        -0.03628600      -0.00759800       0.03485400         13
Al         3.43771726       0.01729341       2.69612622         0.00000000       0.00000000       0.00000000         0.01513000       0.01153100      -0.01701400         13
Al         1.64976364       1.05698392       0.49333778         0.00000000       0.00000000       0.00000000         0.01085400      -0.00709400      -0.04207600         13
Al         9.66757970      10.01828335       2.95584575         0.00000000       0.00000000       0.00000000         0.02687700      -0.10888500       0.09911100         13
Al         5.66222014       6.93660687       4.51273608         0.00000000       0.00000000       0.00000000         0.00345300       0.00333900      -0.00004000         13
Al         2.40452485       6.57699283       4.70172467         0.00000000       0.00000000       0.00000000         0.01003300      -0.04662300      -0.00146100         13
Al         7.73791156       2.88989231       1.20694131         0.00000000       0.00000000       0.00000000        -0.17903100       0.29331900       0.04980300         13
Al         5.96091547       1.73940698       3.55056426         0.00000000       0.00000000       0.00000000        -0.02656100       0.01235100       0.02979700         13
Al         3.73593116       8.07868252       2.26571892         0.00000000       0.00000000       0.00000000         0.01039300      -0.01535900       0.00189800         13
Al        10.80341726       4.83118899       3.80446384         0.00000000       0.00000000       0.00000000         0.00798700       0.08734500       0.02687700         13
Al        11.51345283       7.62777036       2.44544496         0.00000000       0.00000000       0.00000000         0.01287100      -0.05266900      -0.02566000         13
4
pbc=[T, T, T] config_type=high_entropy dft_energy=-7.82463887 Lattice="9.37096900 0.00000000 0.00000000 0.31776600 2.08719200 0.00000000 1.01805800 -0.68214900 3.60209200" Properties=species:S:1:pos:R:3:velocities:R:3:dft_forces:R:3:Z:I:1
Al         3.62937049      -0.06803636      -0.23874598         0.00000000       0.00000000       0.00000000        -1.25060700       0.04234400      -0.12346400         13
Al         2.50565116       3.05322488       3.48850581         0.00000000       0.00000000       0.00000000         1.26427500      -0.16876900       0.02654200         13
Al         6.03470103       0.49134706      -0.13703815         0.00000000       0.00000000       0.00000000        -3.49471400      -0.19130800       0.01598800         13
Al         9.47100983       2.42978175       3.49636982         0.00000000       0.00000000       0.00000000         3.48104600       0.31773300       0.08093400         13
3
pbc=[T, T, T] config_type=high_entropy dft_energy=-7.17405064 Lattice="5.03006000 0.00000000 0.00000000 1.53410700 4.38199800 0.00000000 -2.46673100 1.52442000 6.14165800" Properties=species:S:1:pos:R:3:velocities:R:3:dft_forces:R:3:Z:I:1
Al         4.99456389       2.15286885       3.28870661         0.00000000       0.00000000       0.00000000        -0.18408000      -0.06219100       0.45052200         13
Al         6.45739712       3.35267611       6.31265648         0.00000000       0.00000000       0.00000000         0.18270400       0.06176200      -0.45095200         13
Al         2.45120289       0.56685431       4.81255672         0.00000000       0.00000000       0.00000000         0.00137600       0.00042800       0.00043000         13
2
pbc=[T, T, T] config_type=high_entropy dft_energy=-5.24578543 Lattice="6.34327100 0.00000000 0.00000000 2.53933300 5.54329900 0.00000000 0.18563100 1.05546600 2.07662800" Properties=species:S:1:pos:R:3:velocities:R:3:dft_forces:R:3:Z:I:1
Al         6.12094983       2.77486769       0.39234592         0.00000000       0.00000000       0.00000000        -0.24904500       0.12557900       0.01253000         13
Al         2.89669601       0.94588064       0.17550344         0.00000000       0.00000000       0.00000000         0.24904500      -0.12557900      -0.01253000         13
2
pbc=[T, T, T] config_type=high_entropy dft_energy=-6.65673792 Lattice="4.70917500 0.00000000 0.00000000 -2.10916600 4.53357000 0.00000000 0.43695700 1.00494000 2.50739300" Properties=species:S:1:pos:R:3:velocities:R:3:dft_forces:R:3:Z:I:1
Al         3.74653648       2.20875343       2.09334275         0.00000000       0.00000000       0.00000000         0.00774500       0.06321300       0.04442600         13
Al         5.98380677       3.02945725       0.50921016         0.00000000       0.00000000       0.00000000        -0.00774500      -0.06321300      -0.04442600         13
2
pbc=[T, T, T] config_type=high_entropy dft_energy=-6.29525059 Lattice="7.51909800 0.00000000 0.00000000 0.83482600 2.40519200 0.00000000 0.71812600 0.03839800 2.39322800" Properties=species:S:1:pos:R:3:velocities:R:3:dft_forces:R:3:Z:I:1
Al         7.01535089       1.20687023       1.60671394         0.00000000       0.00000000       0.00000000        -0.10746400      -0.03702400      -0.01390700         13
Al         2.22302555       0.76793730       1.98133754         0.00000000       0.00000000       0.00000000         0.10746400       0.03702400       0.01390700         13
17
pbc=[T, T, T] config_type=high_entropy dft_energy=-48.93801409 Lattice="6.36866200 0.00000000 0.00000000 1.91480200 5.52575200 0.00000000 0.45036000 -2.34521900 8.24301900" Properties=species:S:1:pos:R:3:velocities:R:3:dft_forces:R:3:Z:I:1
Al         4.76946298       2.36252668       1.20311371         0.00000000       0.00000000       0.00000000        -3.47166100       0.32220500      -0.42217900         13
Al         6.67190613       5.58125630       1.23022594         0.00000000       0.00000000       0.00000000         1.68973600      -0.16603900      -2.41398100         13
Al         7.78393887       4.31894508       2.81883911         0.00000000       0.00000000       0.00000000         2.04011100       0.15406300       0.58776800         13
Al         4.56374554       4.42827301       5.89449697         0.00000000       0.00000000       0.00000000         0.22713100      -0.39015300      -0.94862000         13
Al         3.57501621       4.84117327       2.69854386         0.00000000       0.00000000       0.00000000         0.18421600      -0.02570400      -0.18029800         13
Al         5.58783374       3.97599992       2.66130304         0.00000000       0.00000000       0.00000000        -2.16962200       0.51307300       2.62579000         13
Al         0.52701338       5.55668160       6.93749117         0.00000000       0.00000000       0.00000000         1.81609500      -2.68922600      -1.50938100         13
Al         9.32908796       6.17164398       9.45275793         0.00000000       0.00000000       0.00000000         3.72715700      -0.29374100      -7.73927900         13
Al         6.72622159       3.63866323       4.74453549         0.00000000       0.00000000       0.00000000        -0.42759200       0.79655500       2.35495100         13
Al         2.50126374       0.64195515       0.99868797         0.00000000       0.00000000       0.00000000        -1.20089600       3.08002900      -0.70826000         13
Al         2.45715729       5.10021473       4.73785333         0.00000000       0.00000000       0.00000000        -0.29045100      -0.89942800       2.19245900         13
Al         4.71358608       6.37726155       7.34123062         0.00000000       0.00000000       0.00000000        -2.05270200      -0.39952300       1.44222100         13
Al         4.29129950       8.69858535       6.99549688         0.00000000       0.00000000       0.00000000        -1.08549900       2.02335000      -0.19026600         13
Al         0.48232945       1.58169279       2.84994037         0.00000000       0.00000000       0.00000000        -0.36651500      -2.56092000       3.21836100         13
Al         6.70804823       7.87857734       7.32465401         0.00000000       0.00000000       0.00000000         0.85294100       0.56210400      -0.00388100         13
Al         5.57041554       7.12558011       4.18952521         0.00000000       0.00000000       0.00000000         0.03226100       0.00707300      -0.05371400         13
Al         2.37959067       7.12847681       5.82805662         0.00000000       0.00000000       0.00000000         0.49528800      -0.03372000       1.74830900         13
3
pbc=[T, T, T] config_type=high_entropy dft_energy=-8.17554193 Lattice="4.52647300 0.00000000 0.00000000 1.13927300 4.34818700 0.00000000 -1.90080300 0.27210400 5.41212900" Properties=species:S:1:pos:R:3:velocities:R:3:dft_forces:R:3:Z:I:1
Al         2.63756972       3.63345419      -0.03370604         0.00000000       0.00000000       0.00000000         0.06634600       0.03761500       0.11655100         13
Al         2.91923889       3.69330005       3.17767881         0.00000000       0.00000000       0.00000000         0.08708500       0.08625300      -0.14203600         13
Al         4.00086841       1.12468958       1.57997427         0.00000000       0.00000000       0.00000000        -0.15343100      -0.12386800       0.02548500         13
2
pbc=[T, T, T] config_type=high_entropy dft_energy=-4.19186501 Lattice="5.59041400 0.00000000 0.00000000 0.34599100 5.43543500 0.00000000 0.61132300 -0.00814700 2.05386600" Properties=species:S:1:pos:R:3:velocities:R:3:dft_forces:R:3:Z:I:1
Al         2.92669409       2.69258518       0.39543942         0.00000000       0.00000000       0.00000000         0.17660000       0.05783000      -0.09495100         13
Al         4.87609374       5.27371380      -0.06180188         0.00000000       0.00000000       0.00000000        -0.17660000      -0.05783000       0.09495100         13
3
pbc=[T, T, T] config_type=high_entropy dft_energy=-7.20588450 Lattice="7.46671900 0.00000000 0.00000000 3.34801600 6.71489700 0.00000000 0.02090300 0.39372900 2.15285200" Properties=species:S:1:pos:R:3:velocities:R:3:dft_forces:R:3:Z:I:1
Al         8.35634333       4.20368199       0.78030806         0.00000000       0.00000000       0.00000000        -0.46766300       0.37128700       0.01953200         13
Al         4.49679980       0.66272369       1.46375728         0.00000000       0.00000000       0.00000000         0.09739400      -0.02593500      -0.01339800         13
Al         5.40510146       3.70642345       2.09957904         0.00000000       0.00000000       0.00000000         0.37026900      -0.34535200      -0.00613400         13
2
pbc=[T, T, T] config_type=high_entropy dft_energy=-5.30550394 Lattice="9.60177100 0.00000000 0.00000000 1.45952700 3.54449400 0.00000000 0.78858700 -0.03885000 2.39472100" Properties=species:S:1:pos:R:3:velocities:R:3:dft_forces:R:3:Z:I:1
Al         4.04324136       0.09319874       1.36542301         0.00000000       0.00000000       0.00000000        -0.61675000       0.23617900       0.21998400         13
Al         2.26926989       3.39012974       2.37161110         0.00000000       0.00000000       0.00000000         0.61675000      -0.23617900      -0.21998400         13
5
pbc=[T, T, T] config_type=high_entropy dft_energy=-15.97253382 Lattice="4.57737400 0.00000000 0.00000000 2.17163200 4.34427000 0.00000000 2.01701200 0.52694400 6.88205900" Properties=species:S:1:pos:R:3:velocities:R:3:dft_forces:R:3:Z:I:1
Al         5.62827201       2.18991376       4.44785540         0.00000000       0.00000000       0.00000000        -0.00004400      -0.00550300       0.04067700         13
Al         5.83247840       2.38628501       1.41180850         0.00000000       0.00000000       0.00000000        -0.00459900      -0.03238700       0.21826100         13
Al         3.51794554       3.90840884       2.87235442         0.00000000       0.00000000       0.00000000         0.01779200      -0.02523600      -0.00774600         13
Al         3.54466908       0.82268745       0.60463518         0.00000000       0.00000000       0.00000000         0.00793300      -0.02731100      -0.15111900         13
Al         3.29417473       0.54009349       5.67985928         0.00000000       0.00000000       0.00000000        -0.02108200       0.09043800      -0.10007300         13
3
pbc=[T, T, T] config_type=high_entropy dft_energy=-8.91579861 Lattice="6.09555800 0.00000000 0.00000000 1.90180600 6.41477600 0.00000000 0.86646400 0.70386100 2.54956900" Properties=species:S:1:pos:R:3:velocities:R:3:dft_forces:R:3:Z:I:1
Al         4.96186475       5.60010037       1.59266132         0.00000000       0.00000000       0.00000000         0.06566500      -0.07348200      -0.01587500         13
Al         6.25383119       2.61076676       1.68569545         0.00000000       0.00000000       0.00000000        -0.09801200       0.27918500      -0.03491900         13
Al         3.23061572       2.38902678       2.13424809         0.00000000       0.00000000       0.00000000         0.03234800      -0.20570300       0.05079400         13
4
pbc=[T, T, T] config_type=high_entropy dft_energy=-12.29319573 Lattice="10.89062400 0.00000000 0.00000000 2.00181400 3.97090800 0.00000000 0.84752300 -0.13530800 2.58446600" Properties=species:S:1:pos:R:3:velocities:R:3:dft_forces:R:3:Z:I:1
Al         8.14866823       0.77709562       0.73135926         0.00000000       0.00000000       0.00000000         0.00591700       0.00204000      -0.00005200         13
Al         5.43559956      -0.38446998       2.51591019         0.00000000       0.00000000       0.00000000        -0.03847600      -0.03911600      -0.00669600         13
Al         4.09437148       2.68410406       2.01472054         0.00000000       0.00000000       0.00000000        -0.00776400      -0.00661800       0.00264200         13
Al         0.79927080       1.80090404       1.54568095         0.00000000       0.00000000       0.00000000         0.04032300       0.04369400       0.00410600         13
2
pbc=[T, T, T] config_type=high_entropy dft_energy=-2.17553039 Lattice="3.46003000 0.00000000 0.00000000 1.31696500 3.17906800 0.00000000 0.34059800 1.04924100 2.26105600" Properties=species:S:1:pos:R:3:velocities:R:3:dft_forces:R:3:Z:I:1
Al         2.66783292       3.54619060       1.98936462         0.00000000       0.00000000       0.00000000         0.07866700      -0.04452800      -0.01799200         13
Al         4.22925290       3.02489875       0.85716187         0.00000000       0.00000000       0.00000000        -0.07866700       0.04452800       0.01799200         13
19
pbc=[T, T, T] config_type=high_entropy dft_energy=-61.89095042 Lattice="10.19395900 0.00000000 0.00000000 3.37052000 11.63861100 0.00000000 0.32411600 0.41512000 4.00248200" Properties=species:S:1:pos:R:3:velocities:R:3:dft_forces:R:3:Z:I:1
Al         6.85338200       7.47245401       1.48688560         0.00000000       0.00000000       0.00000000        -0.20710000       0.41600100      -0.05729300         13
Al         5.89165307       9.51064744       3.51756600         0.00000000       0.00000000       0.00000000        -0.01815200      -0.15201100       0.01766700         13
Al         8.88078681      10.23843069       3.51230073         0.00000000       0.00000000       0.00000000        -0.24011500       0.31128700       0.12825300         13
Al         7.53001344      -0.61654296       1.79307226         0.00000000       0.00000000       0.00000000         0.16846800       0.11117300      -0.21320600         13
Al         6.23479931       6.01744645       3.70556403         0.00000000       0.00000000       0.00000000         0.16548500       0.14581400       0.03575500         13
Al         2.28374312       4.63155506       2.92379459         0.00000000       0.00000000       0.00000000        -0.02488800      -0.05190500      -0.10772700         13
Al        10.56015547       7.08390199       1.23713883         0.00000000       0.00000000       0.00000000         0.08739000      -0.02265900       0.17430700         13
Al         6.81534847       1.32955023       3.74327350         0.00000000       0.00000000       0.00000000         0.13865500      -0.01194700      -0.03734600         13
Al         6.57601762      11.06621588       1.31756962         0.00000000       0.00000000       0.00000000        -0.09341200      -0.14356900       0.03974100         13
Al         7.61506125       2.77450487       1.51071704         0.00000000       0.00000000       0.00000000         0.29661600      -0.13080300       0.05925000         13
Al        11.70495049       9.12127229      -0.16884864         0.00000000       0.00000000       0.00000000         0.05037400       0.12165500       0.07012800         13
Al         5.24948719       4.15124350       1.94881924         0.00000000       0.00000000       0.00000000        -0.12733900      -0.03649000       0.26642600         13
Al        10.61656333       1.23464687       3.40329199         0.00000000       0.00000000       0.00000000         0.00463800       0.00796400      -0.00096900         13
Al         4.19135832       1.32121228       3.07048077         0.00000000       0.00000000       0.00000000        -0.09180000       0.10096600      -0.02374200         13
Al        10.42463799       4.33618254       1.11610257         0.00000000       0.00000000       0.00000000         0.02617900      -0.34649300       0.10504100         13
Al         8.66147725       4.72269009       3.33643653         0.00000000       0.00000000       0.00000000         0.14701500      -0.35212800      -0.27007600         13
Al         8.87255740       7.46941824       3.35816597         0.00000000       0.00000000       0.00000000        -0.13145700      -0.03156600      -0.04208200         13
Al         3.67135860       9.31182768       1.70347652         0.00000000       0.00000000       0.00000000         0.14441900       0.28438900      -0.08517700         13
Al         3.40842934       3.19881045       4.98562645         0.00000000       0.00000000       0.00000000        -0.29497600      -0.21967700      -0.05895000         13
2
pbc=[T, T, T] config_type=high_entropy dft_energy=-4.83136500 Lattice="6.37800400 0.00000000 0.00000000 0.47467800 2.10783800 0.00000000 0.57286100 0.23163600 2.40160400" Properties=species:S:1:pos:R:3:velocities:R:3:dft_forces:R:3:Z:I:1
Al         2.04337209       1.27593700       0.22509774         0.00000000       0.00000000       0.00000000        -0.09667800       0.00844800       0.02159400         13
Al         5.48282894       0.98198392       2.04455970         0.00000000       0.00000000       0.00000000         0.09667800      -0.00844800      -0.02159400         13
3
pbc=[T, T, T] config_type=high_entropy dft_energy=-8.15367162 Lattice="11.29397200 0.00000000 0.00000000 1.07031800 4.36570100 0.00000000 1.18571100 -0.22072200 2.27791500" Properties=species:S:1:pos:R:3:velocities:R:3:dft_forces:R:3:Z:I:1
Al        12.06981543       3.60973083       0.52140484         0.00000000       0.00000000       0.00000000         0.09901400      -0.18564900      -0.05253400         13
Al         2.94796763       0.89760785       0.79205306         0.00000000       0.00000000       0.00000000        -0.61335600       0.12034800       0.31591800         13
Al         8.82661006       2.72874250       0.89795481         0.00000000       0.00000000       0.00000000         0.51434300       0.06530200      -0.26338400         13
19
pbc=[T, T, T] config_type=high_entropy dft_energy=-61.41852560 Lattice="10.22875700 0.00000000 0.00000000 -4.60333800 10.37788800 0.00000000 1.58106100 -0.39418900 4.61388100" Properties=species:S:1:pos:R:3:velocities:R:3:dft_forces:R:3:Z:I:1
Al         6.69935950       3.78382094       0.44898239         0.00000000       0.00000000       0.00000000         0.04309900      -0.01218500       0.01200500         13
Al         9.38442667       5.35974981      -0.26096429         0.00000000       0.00000000       0.00000000        -0.07502500      -0.03041200      -0.02401200         13
Al         9.48822705       2.99424660       2.06329086         0.00000000       0.00000000       0.00000000        -0.09781000      -0.02875400      -0.05968300         13
Al        13.14237400       2.67719661       4.25525571         0.00000000       0.00000000       0.00000000         0.10813300       0.03959800       0.10852100         13
Al         6.95856467       8.57019463       3.62730872         0.00000000       0.00000000       0.00000000        -0.01041400       0.00211100       0.02563600         13
Al        10.99334139       7.28361935       2.12318825         0.00000000       0.00000000       0.00000000        -0.04048700       0.00791400      -0.05043700         13
Al         8.19242857       1.10364453      -0.32790970         0.00000000       0.00000000       0.00000000        -0.05323900      -0.03208300      -0.00100900         13
Al         9.70372899      10.05581442       3.04199604         0.00000000       0.00000000       0.00000000         0.00990400       0.00346400       0.00450700         13
Al         6.72519172       1.38041531       2.54201237         0.00000000       0.00000000       0.00000000         0.03322800      -0.00816400      -0.01975200         13
Al         8.27092003       5.80090073       2.85201576         0.00000000       0.00000000       0.00000000        -0.00211200      -0.02165600      -0.02053500         13
Al         8.15713193       8.13657876       0.66551708         0.00000000       0.00000000       0.00000000         0.00295300      -0.02121000       0.01076600         13
Al         5.60367748       4.17083519       3.47920132         0.00000000       0.00000000       0.00000000        -0.00776400       0.03864500       0.02504800         13
Al         4.05002776       2.10663558       0.96820512         0.00000000       0.00000000       0.00000000         0.01374800       0.01453800       0.00553900         13
Al         5.38356019       6.58386983       1.13501598         0.00000000       0.00000000       0.00000000        -0.04894500      -0.01526300      -0.01795100         13
Al         2.81907116       4.85999055       1.92726554         0.00000000       0.00000000       0.00000000         0.06911900       0.02378000       0.06783600         13
Al         3.87280672       9.22917771       1.90816226         0.00000000       0.00000000       0.00000000         0.04021400       0.01154300       0.02150300         13
Al        11.20714394       0.41799663       1.36338555         0.00000000       0.00000000       0.00000000        -0.07207600      -0.01965000      -0.06352100         13
Al        12.42552042       9.31999214       4.63882061         0.00000000       0.00000000       0.00000000         0.01404500      -0.01187400      -0.06316800         13
Al         4.22973998       6.94685641       4.10671662         0.00000000       0.00000000       0.00000000         0.07342700       0.05965900       0.03870500         13
16
pbc=[T, T, T] config_type=high_entropy dft_energy=-53.12075782 Lattice="5.28702200 0.00000000 0.00000000 1.35505400 9.56295800 0.00000000 1.03625100 1.19433800 5.12763900" Properties=species:S:1:pos:R:3:velocities:R:3:dft_forces:R:3:Z:I:1
Al         4.94864939       8.29094780       4.62905062         0.00000000       0.00000000       0.00000000        -1.14363700      -0.76040800      -0.73717600         13
Al        -0.19585366       1.35230048       0.73058930         0.00000000       0.00000000       0.00000000        -0.24392300       0.66989700       0.14436200         13
Al         0.28986567       2.67761653       3.26420864         0.00000000       0.00000000       0.00000000        -0.12253900      -0.37282500      -0.31892500         13
Al         3.62567647      10.65609991       4.55079647         0.00000000       0.00000000       0.00000000         0.14584100      -0.02466100      -0.33331300         13
Al         3.74307512       5.16802870       4.29742734         0.00000000       0.00000000       0.00000000        -0.49050000      -0.98526200      -0.74528000         13
Al         0.63176368       7.42137827       1.17372732         0.00000000       0.00000000       0.00000000         1.18031300       0.28940100       0.92164900         13
Al         3.64791245       8.69322719       1.52983357         0.00000000       0.00000000       0.00000000        -0.72581600       1.06596500       0.12454500         13
Al         5.18653325      10.19123682       2.67130536         0.00000000       0.00000000       0.00000000         0.00437100       0.15529700       0.40324000         13
Al         1.89848570       6.83397098       4.27344605         0.00000000       0.00000000       0.00000000        -0.24205500      -0.09552300       0.23169100         13
Al         2.90670486       3.11928882       2.95574922         0.00000000       0.00000000       0.00000000         0.14053100       0.00229700       0.55505100         13
Al         1.92939500       9.14223830       3.65348010         0.00000000       0.00000000       0.00000000         0.38145300       0.65894000      -0.98181000         13
Al         4.68453836       3.96016410       0.84329067         0.00000000       0.00000000       0.00000000         0.09040100       0.31208800      -0.01868200         13
Al         3.44087979       6.40956918       2.15178899         0.00000000       0.00000000       0.00000000         0.62481300       0.01594000       0.28176000         13
Al         5.68108219       5.33949104       3.01380534         0.00000000       0.00000000       0.00000000         0.91389300      -0.01000200      -0.47685900         13
Al         2.37406957       1.95291316       0.65972307         0.00000000       0.00000000       0.00000000         0.18845800      -0.36512800       0.16030300         13
Al         1.98543291       4.80111397       1.20216336         0.00000000       0.00000000       0.00000000        -0.70160400      -0.55601500       0.78944200         13
2
pbc=[T, T, T] config_type=high_entropy dft_energy=-5.74110131 Lattice="4.59000800 0.00000000 0.00000000 1.86062400 3.76628900 0.00000000 1.96270200 0.10407000 3.89114000" Properties=species:S:1:pos:R:3:velocities:R:3:dft_forces:R:3:Z:I:1
Al         2.68981981       0.90684363       4.36283359         0.00000000       0.00000000       0.00000000        -0.07179500       0.15509500       0.08990600         13
Al         3.07652783       2.09197703       1.78489664         0.00000000       0.00000000       0.00000000         0.07179500      -0.15509500      -0.08990600         13
2
pbc=[T, T, T] config_type=high_entropy dft_energy=-1.37310386 Lattice="6.50471800 0.00000000 0.00000000 2.30446700 5.76594500 0.00000000 0.54927400 0.79435400 1.68973800" Properties=species:S:1:pos:R:3:velocities:R:3:dft_forces:R:3:Z:I:1
Al         7.37520757       1.82722384       1.52552473         0.00000000       0.00000000       0.00000000        -0.46148000       0.08595400       0.08507900         13
Al         6.18682720       4.72495908       0.00266797         0.00000000       0.00000000       0.00000000         0.46148000      -0.08595400      -0.08507900         13
4
pbc=[T, T, T] config_type=high_entropy dft_energy=-12.63999532 Lattice="7.40766100 0.00000000 0.00000000 2.13205400 6.06103500 0.00000000 0.68539200 0.95306000 2.23572500" Properties=species:S:1:pos:R:3:velocities:R:3:dft_forces:R:3:Z:I:1
Al         6.34865147       1.65405284       1.80409322         0.00000000       0.00000000       0.00000000        -0.23024100       0.37391800       0.23778200         13
Al         4.07005809       4.71277645       2.19096978         0.00000000       0.00000000       0.00000000         0.39015800      -0.20789600      -0.04961400         13
Al         3.75225629       2.06475302       1.99020611         0.00000000       0.00000000       0.00000000         0.01060500      -0.29062200       0.13284300         13
Al        10.24696571       6.27843431       0.48762200         0.00000000       0.00000000       0.00000000        -0.17052300       0.12460000      -0.32101100         13
3
pbc=[T, T, T] config_type=high_entropy dft_energy=-7.76829432 Lattice="9.84079600 0.00000000 0.00000000 0.42099700 2.15695600 0.00000000 0.61480000 0.68062500 3.61010100" Properties=species:S:1:pos:R:3:velocities:R:3:dft_forces:R:3:Z:I:1
Al         8.65308651       2.42054368       3.11920783         0.00000000       0.00000000       0.00000000         0.11197900       0.01904000       0.10461800         13
Al         6.08504717       1.81991821       2.34524401         0.00000000       0.00000000       0.00000000        -0.07553100       0.06985800      -0.45775000         13
Al         3.42185618       1.48430718       0.55211277         0.00000000       0.00000000       0.00000000        -0.03644800      -0.08889800       0.35313200         13
2
pbc=[T, T, T] config_type=high_entropy dft_energy=-4.61014563 Lattice="6.27325000 0.00000000 0.00000000 2.07417900 5.61656500 0.00000000 0.78812800 -0.13572400 2.04915500" Properties=species:S:1:pos:R:3:velocities:R:3:dft_forces:R:3:Z:I:1
Al         2.13487413      -0.06735838       1.47960452         0.00000000       0.00000000       0.00000000         0.08964100       0.20300200      -0.03440800         13
Al         5.25655187       1.56700149       1.57119953         0.00000000       0.00000000       0.00000000        -0.08964100      -0.20300200       0.03440800         13
2
pbc=[T, T, T] config_type=high_entropy dft_energy=-1.37459654 Lattice="8.70717000 0.00000000 0.00000000 1.44763400 3.21784700 0.00000000 0.05351300 0.76914200 1.76587100" Properties=species:S:1:pos:R:3:velocities:R:3:dft_forces:R:3:Z:I:1
Al         2.20141482       0.42365273       1.06369883         0.00000000       0.00000000       0.00000000        -0.50247200       0.13617300      -0.08171000         13
Al         9.02173276       3.03617347      -0.15078871         0.00000000       0.00000000       0.00000000         0.50247200      -0.13617300       0.08171000         13
3
pbc=[T, T, T] config_type=high_entropy dft_energy=-9.75522148 Lattice="7.53262300 0.00000000 0.00000000 0.72814500 2.25774100 0.00000000 0.36348900 -1.03581300 2.72488000" Properties=species:S:1:pos:R:3:velocities:R:3:dft_forces:R:3:Z:I:1
Al         5.01452598       1.85791523       0.86417578         0.00000000       0.00000000       0.00000000         0.08213900       0.02450500      -0.00009600         13
Al         0.04764217       2.29178655       0.85647017         0.00000000       0.00000000       0.00000000         0.27712900       0.01041700      -0.08268500         13
Al         2.46936095       1.44520578       0.86961178         0.00000000       0.00000000       0.00000000        -0.35926800      -0.03492200       0.08278100         13
18
pbc=[T, T, T] config_type=high_entropy dft_energy=-49.87391549 Lattice="7.96565200 0.00000000 0.00000000 -2.99608500 9.24727800 0.00000000 2.61776200 1.91682900 8.07019700" Properties=species:S:1:pos:R:3:velocities:R:3:dft_forces:R:3:Z:I:1
Al         4.17608387       6.21787938       5.60796235         0.00000000       0.00000000       0.00000000         0.01623400      -0.05861800      -0.00039100         13
Al         7.28815451       7.16938671       3.60549243         0.00000000       0.00000000       0.00000000         0.01130100       0.03442800      -0.09717300         13
Al         5.30129783       3.66188746       3.34827260         0.00000000       0.00000000       0.00000000        -0.20176900       0.00062000      -0.04250600         13
Al        12.66678714      10.18893916       3.63005750         0.00000000       0.00000000       0.00000000         0.00294500      -0.08283300      -0.09716000         13
Al         2.76422750       2.57108915       5.43195274         0.00000000       0.00000000       0.00000000         0.11207000       0.00736000       0.04789400         13
Al         9.83808613       8.91871562       5.31645794         0.00000000       0.00000000       0.00000000        -0.10953900       0.09575100       0.10333600         13
Al         4.25823687      -1.88308934       0.70912396         0.00000000       0.00000000       0.00000000        -0.05858300       0.10072800       0.07933100         13
Al         0.83298490       2.50388443       0.26961588         0.00000000       0.00000000       0.00000000         0.04637900      -0.05963000      -0.05069400         13
Al         9.40514180       7.11702940       8.83814113         0.00000000       0.00000000       0.00000000        -0.05045100       0.05102400       0.08226600         13
Al        14.29530559       5.93635573       8.34101852         0.00000000       0.00000000       0.00000000         0.02622300      -0.03091700       0.03256300         13
Al         8.77498563       5.26448363       6.10613255         0.00000000       0.00000000       0.00000000         0.13125800      -0.03493300       0.13744700         13
Al        14.25277801       8.84327066       6.42989371         0.00000000       0.00000000       0.00000000         0.05449200       0.00326200       0.02002200         13
Al         6.04170105       0.90290565       0.58912808         0.00000000       0.00000000       0.00000000        -0.01227900      -0.02071800      -0.01271800         13
Al         3.74513657       1.12838598       8.32497717         0.00000000       0.00000000       0.00000000         0.03512600       0.01357100      -0.04215900         13
Al         9.49119663       4.59131845       2.88318427         0.00000000       0.00000000       0.00000000         0.07174500       0.07685900      -0.10950400         13
Al         7.10307465      -2.41670248       2.34981228         0.00000000       0.00000000       0.00000000         0.14058500      -0.12845900      -0.08823800         13
Al         6.09235718       2.88296988       6.49538250         0.00000000       0.00000000       0.00000000        -0.16395300       0.02178900       0.10834500         13
Al         3.15649488       1.04614543       2.41985964         0.00000000       0.00000000       0.00000000        -0.05178600       0.01071600      -0.07066200         13
10
pbc=[T, T, T] config_type=high_entropy dft_energy=8.66281316 Lattice="7.21340900 0.00000000 0.00000000 1.78565700 6.97862600 0.00000000 0.89952800 0.03476800 1.88259500" Properties=species:S:1:pos:R:3:velocities:R:3:dft_forces:R:3:Z:I:1
Al         2.89167795       5.51083130       1.52402694         0.00000000       0.00000000       0.00000000        -2.39187700      -6.15946600       1.12249700         13
Al         5.88877696       1.85464026       0.28447321         0.00000000       0.00000000       0.00000000         4.73199100       6.19263000      -2.46476900         13
Al         5.05091198       3.11455276       1.77644293         0.00000000       0.00000000       0.00000000         0.55417900       4.23582600      -0.37015100         13
Al         8.54889425       6.98934067       1.07430471         0.00000000       0.00000000       0.00000000         0.00695900      -2.40859200       0.01260500         13
Al         2.13310973      -0.20257023      -0.16668439         0.00000000       0.00000000       0.00000000        -2.36169600      -0.20175100       1.27370400         13
Al         4.79410137       4.96147951       0.63942377         0.00000000       0.00000000       0.00000000         0.97302100      -4.00492600      -0.27977500         13
Al         4.88022666       0.92285856       1.95567267         0.00000000       0.00000000       0.00000000         0.24926400      -0.25466500      -0.03658200         13
Al         3.15190062       2.21318801       1.57942506         0.00000000       0.00000000       0.00000000        -4.47467400       6.19319900       2.05041800         13
Al         6.65624776       6.01579594       0.85927446         0.00000000       0.00000000       0.00000000         3.64878400      -6.76063700      -1.66339600         13
Al         1.35384652       1.12724985       1.33039719         0.00000000       0.00000000       0.00000000        -0.93595000       3.16838100       0.35544900         13
4
pbc=[T, T, T] config_type=high_entropy dft_energy=-11.40579335 Lattice="5.69149300 0.00000000 0.00000000 1.42646900 3.64767600 0.00000000 0.93636100 1.40032500 3.32078400" Properties=species:S:1:pos:R:3:velocities:R:3:dft_forces:R:3:Z:I:1
Al         4.77927301       2.44209801       1.45737315         0.00000000       0.00000000       0.00000000        -1.20030300      -0.16279500       0.20655600         13
Al         6.48235334       3.82450067       2.41566575         0.00000000       0.00000000       0.00000000         1.71658200      -1.06649700      -0.12777000         13
Al         6.38282469       1.70917028       3.45076170         0.00000000       0.00000000       0.00000000         1.66557100      -0.03495800       0.01501400         13
Al         4.34039758       4.59792894       2.78869770         0.00000000       0.00000000       0.00000000        -2.18185100       1.26425000      -0.09380000         13
22
pbc=[T, T, T] config_type=high_entropy dft_energy=-66.84522992 Lattice="20.02099100 0.00000000 0.00000000 1.71435400 4.42538100 0.00000000 0.57782500 0.13731300 5.71374000" Properties=species:S:1:pos:R:3:velocities:R:3:dft_forces:R:3:Z:I:1
Al         8.86171444       1.14318596       5.27961297         0.00000000       0.00000000       0.00000000         0.63158500      -0.37344100      -2.39774400         13
Al        17.53279142       2.76681606       2.68946670         0.00000000       0.00000000       0.00000000        -2.01317800       0.64602600      -5.04382400         13
Al         6.95366325       1.61843714       2.55005196         0.00000000       0.00000000       0.00000000         0.72006000      -0.27504400       2.27793000         13
Al        14.51287038       1.48412598       5.72406402         0.00000000       0.00000000       0.00000000         2.50605500      -1.00119000       2.07969600         13
Al        13.71281442       4.29560050       4.27250956         0.00000000       0.00000000       0.00000000        -0.13205800       0.07392800       0.20421200         13
Al        14.94270470       1.25618183       3.39753148         0.00000000       0.00000000       0.00000000         1.37200700      -0.61923500      -2.62628800         13
Al         6.51496903       4.33284259       3.16512285         0.00000000       0.00000000       0.00000000         0.12323100       0.00423800       0.04473500         13
Al        16.97776455       0.31957390       0.98849002         0.00000000       0.00000000       0.00000000        -0.34978100       0.22653600      -0.12502300         13
Al        10.67225264       2.90205567       3.78819519         0.00000000       0.00000000       0.00000000        -2.35730800       0.90892100      -2.31741000         13
Al         2.13414002       0.97075728       3.52076660         0.00000000       0.00000000       0.00000000        -0.07048800       0.02754500       0.02176400         13
Al         1.83402876       0.90468918       0.67687025         0.00000000       0.00000000       0.00000000         0.07202700      -0.03069000      -0.04895300         13
Al         6.18622473       1.81333489       0.33545499         0.00000000       0.00000000       0.00000000        -2.38609700       0.82952500      -1.61700000         13
Al        17.28935057       0.35518144       3.85079585         0.00000000       0.00000000       0.00000000         0.79190700      -0.36352900       0.15471800         13
Al        12.64324069       2.07308828       1.89497065         0.00000000       0.00000000       0.00000000         0.12282200       0.14709000       0.23179700         13
Al         8.78091694       3.40289405       1.45529330         0.00000000       0.00000000       0.00000000        -0.43637500       0.28504500       0.22712800         13
Al        19.36698668       2.06606797       3.89967435         0.00000000       0.00000000       0.00000000         3.85496100      -1.48316000       0.48267300         13
Al        12.87769561       2.07369206       4.18535539         0.00000000       0.00000000       0.00000000         0.13086700      -0.04879900      -0.61342400         13
Al        10.98385063       2.51084378       0.25684615         0.00000000       0.00000000       0.00000000        -1.59406600       0.88487300       1.94638900         13
Al        17.40361687       2.90139944       4.91932679         0.00000000       0.00000000       0.00000000        -2.21962400       0.94939200       4.68997300         13
Al        21.59947649       3.73780183       3.70752848         0.00000000       0.00000000       0.00000000         0.29581900      -0.10583200       0.03497800         13
Al         4.39268024       2.63151511       3.34595645         0.00000000       0.00000000       0.00000000        -0.16385500       0.02116800       0.09943200         13
Al        11.36422553       4.98895232       1.45561231         0.00000000       0.00000000       0.00000000         1.10148900      -0.70336800       2.29424100         13
2
pbc=[T, T, T] config_type=high_entropy dft_energy=-5.64760719 Lattice="8.58285000 0.00000000 0.00000000 0.97755200 2.18112200 0.00000000 0.45415100 -0.84470600 3.12414600" Properties=species:S:1:pos:R:3:velocities:R:3:dft_forces:R:3:Z:I:1
Al         0.86410595       2.30199212       2.64633360         0.00000000       0.00000000       0.00000000         0.27424600      -0.14484100      -0.09828300         13
Al         3.86092986       1.40750525       1.15588642         0.00000000       0.00000000       0.00000000        -0.27424600       0.14484100       0.09828300         13
2
pbc=[T, T, T] config_type=high_entropy dft_energy=-5.52940533 Lattice="9.07211000 0.00000000 0.00000000 0.45573000 2.65321600 0.00000000 0.00790000 0.70881100 2.11879200" Properties=species:S:1:pos:R:3:velocities:R:3:dft_forces:R:3:Z:I:1
Al         7.49314832       1.63482880       0.74823361         0.00000000       0.00000000       0.00000000         0.24390800      -0.03525400       0.02102500         13
Al         1.37041570       1.13410901       0.85102794         0.00000000       0.00000000       0.00000000        -0.24390800       0.03525400      -0.02102500         13
2
pbc=[T, T, T] config_type=high_entropy dft_energy=-4.42232972 Lattice="5.15403000 0.00000000 0.00000000 2.04207000 5.27758800 0.00000000 0.27857900 0.90706200 1.88276200" Properties=species:S:1:pos:R:3:velocities:R:3:dft_forces:R:3:Z:I:1
Al         6.80704039       3.86870489       0.80045775         0.00000000       0.00000000       0.00000000        -0.27207900      -0.06659200       0.16650400         13
Al         3.97786544       1.73873671       0.70641813         0.00000000       0.00000000       0.00000000         0.27207900       0.06659200      -0.16650400         13
4
pbc=[T, T, T] config_type=high_entropy dft_energy=-11.82108549 Lattice="7.23431400 0.00000000 0.00000000 3.09683900 7.17281900 0.00000000 1.12520100 0.60703800 2.28973600" Properties=species:S:1:pos:R:3:velocities:R:3:dft_forces:R:3:Z:I:1
Al         2.80656563       2.80268458       0.67321801         0.00000000       0.00000000       0.00000000        -0.01192900       0.21309800      -0.04460500         13
Al         7.27457463       5.39807238       0.95296072         0.00000000       0.00000000       0.00000000         0.04437500      -0.25788100       0.03453200         13
Al         6.36066180       2.06031528       0.96840524         0.00000000       0.00000000       0.00000000         0.12419700       0.11947000      -0.07444700         13
Al        10.69360728       6.14335159       0.30715292         0.00000000       0.00000000       0.00000000        -0.15664200      -0.07468600       0.08451900         13
14
pbc=[T, T, T] config_type=high_entropy dft_energy=-48.93029792 Lattice="9.64323400 0.00000000 0.00000000 3.33251000 7.90211500 0.00000000 1.03370800 2.04274400 3.95853000" Properties=species:S:1:pos:R:3:velocities:R:3:dft_forces:R:3:Z:I:1
Al         5.36058569       4.37738041       2.55927635         0.00000000       0.00000000       0.00000000        -0.07077900      -0.16998600       0.05965000         13
Al        11.73057057       7.48505300       4.24253237         0.00000000       0.00000000       0.00000000        -0.48509000       0.31461900      -0.02187900         13
Al         3.19040009       4.04376625       0.73430909         0.00000000       0.00000000       0.00000000         0.48119800      -0.29010200       0.05260500         13
Al         8.21482085       4.61782969       1.57569604         0.00000000       0.00000000       0.00000000        -0.09588500      -0.02157300       0.03772900         13
Al         6.76752529       6.94001774       0.67547919         0.00000000       0.00000000       0.00000000        -0.02269300       0.06389200      -0.05671700         13
Al        10.28059218       2.87216608       2.02332725         0.00000000       0.00000000       0.00000000         0.12067800      -0.02088300      -0.02329400         13
Al         9.32807959      -0.56444740       1.43557596         0.00000000       0.00000000       0.00000000        -0.06010700       0.05717900      -0.00455600         13
Al         5.35700493       8.42896184       2.91055693         0.00000000       0.00000000       0.00000000         0.07798000      -0.02291400      -0.02059900         13
Al         7.89472492       1.90258421       0.49561369         0.00000000       0.00000000       0.00000000         0.01499300       0.02261000      -0.00147900         13
Al         1.82142977       1.37066195      -0.14692403         0.00000000       0.00000000       0.00000000         0.04669000      -0.12708400       0.04124500         13
Al         9.58227886       7.18668950       2.38477008         0.00000000       0.00000000       0.00000000        -0.02035600       0.12277000      -0.11819500         13
Al         4.58661217       1.62830400       1.59313653         0.00000000       0.00000000       0.00000000         0.10286700      -0.07156200       0.02687200         13
Al         7.05416018       2.04919991       3.34878261         0.00000000       0.00000000       0.00000000        -0.15148200       0.03512300      -0.00652100         13
Al         6.04689986       4.20478992      -0.27562244         0.00000000       0.00000000       0.00000000         0.06198500       0.10791200       0.03514000         13
18
pbc=[T, T, T] config_type=high_entropy dft_energy=-62.03733920 Lattice="9.96476900 0.00000000 0.00000000 3.59535700 9.08213100 0.00000000 0.45913700 2.15188800 3.77761900" Properties=species:S:1:pos:R:3:velocities:R:3:dft_forces:R:3:Z:I:1
Al        11.78044137       8.10139526       2.40258979         0.00000000       0.00000000       0.00000000         0.89068300      -0.30430900      -0.32747000         13
Al         5.59386364       9.70539135       1.37355833         0.00000000       0.00000000       0.00000000         0.17102400      -0.92914200       0.02226400         13
Al         5.67628495       5.80656020       3.13831122         0.00000000       0.00000000       0.00000000        -0.00673300       1.08979800      -0.80808800         13
Al         3.21596013       5.05258371       3.83002930         0.00000000       0.00000000       0.00000000        -0.28692300       0.51017400      -0.16740200         13
Al         2.08399503       2.97889591       2.57201820         0.00000000       0.00000000       0.00000000        -0.39459800       0.31862800       0.03263500         13
Al        13.67746586      10.41995901       3.12319258         0.00000000       0.00000000       0.00000000        -1.01814200      -0.86612500       0.62233700         13
Al         7.02471922       3.80257099       1.75047066         0.00000000       0.00000000       0.00000000        -0.03991000       0.47262600       0.12970400         13
Al         8.32887804       5.95266887       3.01644256         0.00000000       0.00000000       0.00000000        -0.36905300       0.58824000      -0.02112100         13
Al        10.84287464       5.33248469       2.64849740         0.00000000       0.00000000       0.00000000         0.59655600       0.71437400      -0.16472900         13
Al         9.20823307       8.19003603       1.74811727         0.00000000       0.00000000       0.00000000        -0.87417700       0.25653000       0.14488300         13
Al         9.26266071       5.83404608       0.54379450         0.00000000       0.00000000       0.00000000        -0.13529400       0.20150800      -0.48706500         13
Al         9.58856436       3.35134231       1.43062763         0.00000000       0.00000000       0.00000000         0.39965700      -0.53585400      -0.54631000         13
Al         4.43702379       3.82159851       1.88621779         0.00000000       0.00000000       0.00000000         0.03916400       0.56697200      -0.09905200         13
Al         5.66297749       1.64767922       0.98987596         0.00000000       0.00000000       0.00000000        -0.51798900      -0.77126300      -0.73245900         13
Al         5.80315234       8.98985754       4.01740232         0.00000000       0.00000000       0.00000000        -0.00026200      -0.40998800       0.51321600         13
Al        10.72882664      10.42997519       3.13064408         0.00000000       0.00000000       0.00000000         0.31296500      -0.14193200       0.18729800         13
Al         7.78936617      10.57977505       3.20799522         0.00000000       0.00000000       0.00000000         0.58380000      -0.62880600       0.50077500         13
Al         8.14247984       1.29067828       0.09537919         0.00000000       0.00000000       0.00000000         0.64923200      -0.13143200       1.20058400         13
10
pbc=[T, T, T] config_type=high_entropy dft_energy=-32.65504431 Lattice="8.08571400 0.00000000 0.00000000 1.08600700 7.26535400 0.00000000 1.14737300 0.82251300 2.33849000" Properties=species:S:1:pos:R:3:velocities:R:3:dft_forces:R:3:Z:I:1
Al         3.82049263       7.12539878       1.90308297         0.00000000       0.00000000       0.00000000         0.01066700      -0.79223600       0.18443300         13
Al         7.26121653       5.67048479       1.10384520         0.00000000       0.00000000       0.00000000         0.24660100       0.83443000      -0.46458600         13
Al         4.64022823       5.21448383       0.72121546         0.00000000       0.00000000       0.00000000        -0.04065800       0.73905400      -0.25899300         13
Al         8.36546932       2.32626099       1.89595923         0.00000000       0.00000000       0.00000000        -0.00353300       0.76295200      -0.18830600         13
Al         9.22850926       7.23664653       1.28918693         0.00000000       0.00000000       0.00000000         0.02760800      -0.78751600       0.18687600         13
Al         6.38253157       3.40786463       0.74356743         0.00000000       0.00000000       0.00000000         0.12337500      -0.73709900       0.26025100         13
Al         1.81397198       1.38489392       0.17362362         0.00000000       0.00000000       0.00000000        -0.11895800       0.86063000      -0.14936400         13
Al         3.77317343       2.95241591       0.36469474         0.00000000       0.00000000       0.00000000        -0.26360500      -0.80081300       0.41673300         13
Al         2.04925005       4.73019043       1.90065718         0.00000000       0.00000000       0.00000000        -0.00219000      -0.04054800       0.01353600         13
Al         6.63128994       8.36041941       1.90175153         0.00000000       0.00000000       0.00000000         0.02069300      -0.03885400      -0.00058100         13
8
pbc=[T, T, T] config_type=high_entropy dft_energy=-24.71331371 Lattice="6.79055100 0.00000000 0.00000000 1.49713200 6.64977600 0.00000000 1.13048300 0.76775400 5.16031400" Properties=species:S:1:pos:R:3:velocities:R:3:dft_forces:R:3:Z:I:1
Al         4.81508930       4.62056514       4.84768373         0.00000000       0.00000000       0.00000000         0.02872100       0.11285800      -0.05335200         13
Al         2.61655299       5.57241786       3.00966512         0.00000000       0.00000000       0.00000000        -0.10458100      -0.15629500       0.01016300         13
Al         6.83683264       7.01384158       3.68310629         0.00000000       0.00000000       0.00000000         0.06525200      -0.10952100      -0.08451000         13
Al         7.60081375       1.01366923       5.59281079         0.00000000       0.00000000       0.00000000        -0.24829800      -0.22629800       0.03328700         13
Al         3.86668193       2.74649770       2.49024136         0.00000000       0.00000000       0.00000000         0.19815000       0.31218900      -0.04888300         13
Al         5.18402666       5.82536309       1.45543287         0.00000000       0.00000000       0.00000000         0.12348500      -0.20514800       0.07449200         13
Al         7.16894942       3.19290056       3.54204026         0.00000000       0.00000000       0.00000000        -0.09590100       0.16568300       0.02157000         13
Al         0.70055941       3.88826572       0.60473631         0.00000000       0.00000000       0.00000000         0.03317200       0.10653100       0.04723400         13
3
pbc=[T, T, T] config_type=high_entropy dft_energy=-9.30637437 Lattice="6.59250100 0.00000000 0.00000000 3.21600400 5.61641700 0.00000000 1.10006800 0.51253900 2.41130800" Properties=species:S:1:pos:R:3:velocities:R:3:dft_forces:R:3:Z:I:1
Al         4.98577260      -0.41665166       2.06664511         0.00000000       0.00000000       0.00000000         0.14999700       0.05252100      -0.12882200         13
Al         5.72573658       1.24204083      -0.29314564         0.00000000       0.00000000       0.00000000        -0.07117100       0.02739600       0.09629100         13
Al         5.52077746       4.44332447       1.99769733         0.00000000       0.00000000       0.00000000        -0.07882600      -0.07991700       0.03253100         13
19
pbc=[T, T, T] config_type=high_entropy dft_energy=-62.26283499 Lattice="15.45682200 0.00000000 0.00000000 0.38400200 5.84982300 0.00000000 2.52165500 0.04768100 5.24500100" Properties=species:S:1:pos:R:3:velocities:R:3:dft_forces:R:3:Z:I:1
Al         8.38650951       1.15158469       4.63846759         0.00000000       0.00000000       0.00000000        -0.07786500       0.02669600      -0.04251200         13
Al         3.95129186       1.36833881       1.75739732         0.00000000       0.00000000       0.00000000        -0.03690800       0.04594100      -0.14190300         13
Al         3.73746734       4.37875817       3.46181288         0.00000000       0.00000000       0.00000000        -0.05261900       0.00405500       0.01003000         13
Al        11.84569570       3.10976226       0.44823134         0.00000000       0.00000000       0.00000000         0.05676600       0.33175400       0.01510000         13
Al         6.57194296       2.78072703       2.23475939         0.00000000       0.00000000       0.00000000         0.16643900       0.09918300      -0.08002100         13
Al        15.93619073       4.58340920       3.38135866         0.00000000       0.00000000       0.00000000        -0.15545600      -0.04303300       0.15638400         13
Al         5.16988205       1.41012162       4.27277626         0.00000000       0.00000000       0.00000000         0.05755600       0.00663800       0.21254800         13
Al         9.36891237       4.04145032       3.05812915         0.00000000       0.00000000       0.00000000        -0.06979500      -0.09052000      -0.03061700         13
Al        11.42301815       1.92542389       4.11587778         0.00000000       0.00000000       0.00000000         0.03877500       0.02211000      -0.01983500         13
Al         8.20507497       4.72179782       0.34334250         0.00000000       0.00000000       0.00000000         0.06986000      -0.04186100      -0.05748500         13
Al        -1.15653029       1.70717899       2.41666036         0.00000000       0.00000000       0.00000000         0.01716000       0.00147900       0.01304500         13
Al        14.71971887       6.26908493       5.49227202         0.00000000       0.00000000       0.00000000         0.19650800      -0.33905200      -0.15250000         13
Al         6.79413060       4.25905052       5.27175598         0.00000000       0.00000000       0.00000000        -0.10580600      -0.05263700       0.04704700         13
Al        17.17199664       4.60121986       5.95404868         0.00000000       0.00000000       0.00000000        -0.13330700       0.02271100       0.02598600         13
Al         1.53790357       2.96882591       1.22656441         0.00000000       0.00000000       0.00000000         0.09797600      -0.05455000      -0.03388600         13
Al        10.31048172       4.69585065      -2.07066510         0.00000000       0.00000000       0.00000000         0.05418700      -0.04054400      -0.00365000         13
Al         9.93849125       6.88970569       1.76668930         0.00000000       0.00000000       0.00000000        -0.16909400       0.08501100       0.14970400         13
Al         1.74034844       5.91252317       1.23515020         0.00000000       0.00000000       0.00000000         0.04758800      -0.00420700      -0.06405400         13
Al         1.79251733       1.60713637       4.26504135         0.00000000       0.00000000       0.00000000        -0.00196500       0.02082500      -0.00338000         13
4
pbc=[T, T, T] config_type=high_entropy dft_energy=-11.72180372 Lattice="7.10434400 0.00000000 0.00000000 -2.66521200 8.01526900 0.00000000 0.61725300 0.48317500 2.49744900" Properties=species:S:1:pos:R:3:velocities:R:3:dft_forces:R:3:Z:I:1
Al         6.45363000       7.51120329       0.64181101         0.00000000       0.00000000       0.00000000        -0.23561100      -0.70776700       0.20590100         13
Al        10.70555413       6.55278053       1.35054870         0.00000000       0.00000000       0.00000000         0.18688800      -0.49491300       0.03554200         13
Al         4.99396153       3.94093438       0.32936326         0.00000000       0.00000000       0.00000000         0.20233300       0.71160900      -0.20061800         13
Al         8.25601655       4.56266641       0.92676527         0.00000000       0.00000000       0.00000000        -0.15361100       0.49107100      -0.04082500         13
3
pbc=[T, T, T] config_type=high_entropy dft_energy=-8.63844142 Lattice="6.89514500 0.00000000 0.00000000 0.52168100 6.03181700 0.00000000 0.93465900 -0.01148700 2.22501100" Properties=species:S:1:pos:R:3:velocities:R:3:dft_forces:R:3:Z:I:1
Al         2.21007307       4.83911108       1.63896900         0.00000000       0.00000000       0.00000000        -0.01448800      -0.01045400       0.01433400         13
Al         7.13135169       2.01524641       1.39153737         0.00000000       0.00000000       0.00000000         0.13002800      -0.06733200      -0.10922900         13
Al         3.71320978       1.59991738       1.41120292         0.00000000       0.00000000       0.00000000        -0.11553900       0.07778500       0.09489500         13
2
pbc=[T, T, T] config_type=high_entropy dft_energy=-5.70567294 Lattice="9.68038600 0.00000000 0.00000000 1.12574300 2.11323300 0.00000000 0.52038200 -0.76783400 2.85457100" Properties=species:S:1:pos:R:3:velocities:R:3:dft_forces:R:3:Z:I:1
Al         7.17867662       1.51921104       0.27491562         0.00000000       0.00000000       0.00000000        -1.77292100       0.43689100       1.24912800         13
Al        10.72940896       2.15000574       1.94639577         0.00000000       0.00000000       0.00000000         1.77292100      -0.43689100      -1.24912800         13
12
pbc=[T, T, T] config_type=high_entropy dft_energy=-41.73483326 Lattice="7.80008200 0.00000000 0.00000000 1.72183700 7.21110600 0.00000000 2.48249900 2.29523700 4.58707600" Properties=species:S:1:pos:R:3:velocities:R:3:dft_forces:R:3:Z:I:1
Al         7.48525412       6.22665745       1.94553368         0.00000000       0.00000000       0.00000000        -0.03716500      -0.19946100      -0.19813900         13
Al        11.79036753       8.48794540       4.31390311         0.00000000       0.00000000       0.00000000        -0.16545200       0.08068800       0.10288700         13
Al         5.03101671       1.52951487       2.99754867         0.00000000       0.00000000       0.00000000        -0.10156700      -0.00267600      -0.13201800         13
Al         2.67457112       2.64247166       1.92509857         0.00000000       0.00000000       0.00000000        -0.17692300       0.00709900      -0.17016900         13
Al         5.53258014       3.99373071       1.94340246         0.00000000       0.00000000       0.00000000         0.01994400       0.03864600       0.24382200         13
Al         1.44654350       1.50413923      -0.37624961         0.00000000       0.00000000       0.00000000        -0.02410800       0.23723200       0.09327000         13
Al         7.83174612       3.77000622       4.23419679         0.00000000       0.00000000       0.00000000         0.02970500       0.01719800       0.01513900         13
Al         4.54304094       6.89797077       1.33143881         0.00000000       0.00000000       0.00000000         0.15743900       0.04605900       0.02886400         13
Al         6.24150122       5.06325620      -0.32742430         0.00000000       0.00000000       0.00000000         0.32911700       0.00657400      -0.06428900         13
Al         5.80766233       6.38110993       4.22514358         0.00000000       0.00000000       0.00000000         0.00135200      -0.31088000       0.11542100         13
Al         9.48167494       8.58048162       1.91969664         0.00000000       0.00000000       0.00000000        -0.03611600       0.09925000       0.03815100         13
Al         2.41730423       5.52805721       2.54508900         0.00000000       0.00000000       0.00000000         0.00377700      -0.01973100      -0.07293800         13
2
pbc=[T, T, T] config_type=high_entropy dft_energy=-4.95597662 Lattice="10.02623400 0.00000000 0.00000000 1.75373900 3.49863500 0.00000000 0.96104800 0.50594200 1.99757900" Properties=species:S:1:pos:R:3:velocities:R:3:dft_forces:R:3:Z:I:1
Al         9.75538063       2.80816502       0.67596428         0.00000000       0.00000000       0.00000000        -0.47438700       0.24974700       0.16735500         13
Al         6.12094191       2.44761350       1.70928277         0.00000000       0.00000000       0.00000000         0.47438700      -0.24974700      -0.16735500         13
3
pbc=[T, T, T] config_type=high_entropy dft_energy=-8.50433678 Lattice="13.08148900 0.00000000 0.00000000 0.50320000 3.62209200 0.00000000 1.37024600 -0.16045000 2.39571600" Properties=species:S:1:pos:R:3:velocities:R:3:dft_forces:R:3:Z:I:1
Al         3.21704624       1.79700171       1.32432863         0.00000000       0.00000000       0.00000000        -0.02608900      -0.02324900       0.01450100         13
Al         4.69690002      -0.10198200      -1.30568975         0.00000000       0.00000000       0.00000000        -0.59615100       0.12055500       0.34623900         13
Al         1.33564594       0.25409114       3.87953320         0.00000000       0.00000000       0.00000000         0.62224000      -0.09730600      -0.36074000         13
6
pbc=[T, T, T] config_type=high_entropy dft_energy=-20.89119847 Lattice="9.46500500 0.00000000 0.00000000 0.23076000 3.26079200 0.00000000 0.71384000 0.18508600 3.25918500" Properties=species:S:1:pos:R:3:velocities:R:3:dft_forces:R:3:Z:I:1
Al         5.01135001       2.75253198       4.03547914         0.00000000       0.00000000       0.00000000         1.14489000      -0.08997800      -0.39660800         13
Al         1.75544036       2.66156905       1.37478244         0.00000000       0.00000000       0.00000000        -1.49693700       0.04819400       0.45292100         13
Al         2.56219524       0.88394493      -0.55789057         0.00000000       0.00000000       0.00000000        -0.10774100       0.04978000      -0.00672600         13
Al         8.06237203       2.57636837       2.42658156         0.00000000       0.00000000       0.00000000         0.07062600       0.00773900      -0.01682800         13
Al         9.58455029       0.99367714       3.75170772         0.00000000       0.00000000       0.00000000         1.45360600      -0.08030900      -0.42720600         13
Al         6.31407196       0.89748550       1.09392473         0.00000000       0.00000000       0.00000000        -1.06444500       0.06457500       0.39444800         13
2
pbc=[T, T, T] config_type=high_entropy dft_energy=-5.06307705 Lattice="11.20326700 0.00000000 0.00000000 0.62999100 2.24295600 0.00000000 0.29013100 -0.51007000 3.44201900" Properties=species:S:1:pos:R:3:velocities:R:3:dft_forces:R:3:Z:I:1
Al         6.20436288       1.55260162       0.31556451         0.00000000       0.00000000       0.00000000        -0.48989400       0.11616700       0.14387800         13
Al         3.13392110       3.17820452       1.86181353         0.00000000       0.00000000       0.00000000         0.48989400      -0.11616700      -0.14387800         13
4
pbc=[T, T, T] config_type=high_entropy dft_energy=-11.49944598 Lattice="8.28846900 0.00000000 0.00000000 2.51071700 6.48299100 0.00000000 0.84470500 0.66937700 2.41172200" Properties=species:S:1:pos:R:3:velocities:R:3:dft_forces:R:3:Z:I:1
Al         3.12570405       4.41228815      -0.25662871         0.00000000       0.00000000       0.00000000        -0.19171800      -0.02470200       0.07916500         13
Al        10.12682097       2.08941966       2.24535691         0.00000000       0.00000000       0.00000000        -0.24841700       0.08099400       0.06265500         13
Al         6.12920688       2.76781422       0.79181662         0.00000000       0.00000000       0.00000000         0.15929700       0.06232000      -0.06962200         13
Al         6.29996405      -0.59838548       1.53621756         0.00000000       0.00000000       0.00000000         0.28083900      -0.11861200      -0.07219800         13
2
pbc=[T, T, T] config_type=high_entropy dft_energy=-5.54217216 Lattice="8.89580600 0.00000000 0.00000000 0.74595800 2.92055800 0.00000000 0.78916500 -0.01458500 2.83351400" Properties=species:S:1:pos:R:3:velocities:R:3:dft_forces:R:3:Z:I:1
Al        10.50483129       2.25392528       2.10710788         0.00000000       0.00000000       0.00000000        -0.38033700       0.09938100       0.11379100         13
Al         6.10829317       1.48195311       0.56523290         0.00000000       0.00000000       0.00000000         0.38033700      -0.09938100      -0.11379100         13
9
pbc=[T, T, T] config_type=high_entropy dft_energy=-29.79654105 Lattice="13.75829400 0.00000000 0.00000000 1.75340600 3.55969700 0.00000000 1.05186200 1.52489000 3.81938400" Properties=species:S:1:pos:R:3:velocities:R:3:dft_forces:R:3:Z:I:1
Al         8.25933388       0.46017152       0.09274835         0.00000000       0.00000000       0.00000000         0.43448600       0.03153700      -0.07233400         13
Al        16.09123005       5.44656545       3.59179890         0.00000000       0.00000000       0.00000000        -0.74930100       0.45490400       0.61667700         13
Al         4.95242822       1.98324048       2.11486231         0.00000000       0.00000000       0.00000000         0.31969200      -0.31912500      -0.74627800         13
Al         7.02329220       3.17289652       3.35073310         0.00000000       0.00000000       0.00000000         0.33884800      -0.14942900       0.21185300         13
Al        13.80031823       4.37409415       2.35752396         0.00000000       0.00000000       0.00000000         0.02529400      -0.12671800      -0.29057100         13
Al        11.95178358       3.02639377       3.81302205         0.00000000       0.00000000       0.00000000        -0.41485500       0.06146400       0.30693900         13
Al         2.17679590       1.18764347       0.94617492         0.00000000       0.00000000       0.00000000        -0.02357100       0.00515800      -0.03568300         13
Al         2.88802059       0.72584733       3.36023632         0.00000000       0.00000000       0.00000000         1.11299200      -0.62301200       0.25652000         13
Al         2.56217692       3.15482554       2.34241588         0.00000000       0.00000000       0.00000000        -1.04358500       0.66522200      -0.24712200         13
2
pbc=[T, T, T] config_type=high_entropy dft_energy=-5.52241323 Lattice="7.73392900 0.00000000 0.00000000 0.16717900 2.31623700 0.00000000 0.13265900 0.02324100 2.45822200" Properties=species:S:1:pos:R:3:velocities:R:3:dft_forces:R:3:Z:I:1
Al        -0.52031481       2.03699982       1.24786085         0.00000000       0.00000000       0.00000000         0.23391100      -0.08109300      -0.02517200         13
Al         2.15885202       2.46664553       2.27501509         0.00000000       0.00000000       0.00000000        -0.23391100       0.08109300       0.02517200         13
2
pbc=[T, T, T] config_type=high_entropy dft_energy=-6.60519505 Lattice="5.09045700 0.00000000 0.00000000 1.95039100 3.83965100 0.00000000 0.09484600 0.12562400 2.65210800" Properties=species:S:1:pos:R:3:velocities:R:3:dft_forces:R:3:Z:I:1
Al         2.66371960       2.77836562       1.74118969         0.00000000       0.00000000       0.00000000        -0.18080300       0.13644000       0.00252200         13
Al         5.14984381       1.61170882       0.41791695         0.00000000       0.00000000       0.00000000         0.18080300      -0.13644000      -0.00252200         13
3
pbc=[T, T, T] config_type=high_entropy dft_energy=-2.75008408 Lattice="6.74538600 0.00000000 0.00000000 3.02947300 6.61360000 0.00000000 0.66684800 0.35086700 1.79974600" Properties=species:S:1:pos:R:3:velocities:R:3:dft_forces:R:3:Z:I:1
Al         1.59756625       0.92840275       1.09963712         0.00000000       0.00000000       0.00000000        -0.28415100      -0.19730000       0.02697800         13
Al         4.75473757       1.31381890       0.53837163         0.00000000       0.00000000       0.00000000         0.09176300      -0.54459900       0.10197700         13
Al         9.13785525       5.06725593       1.25013641         0.00000000       0.00000000       0.00000000         0.19238800       0.74189800      -0.12895500         13
2
pbc=[T, T, T] config_type=high_entropy dft_energy=-0.17347346 Lattice="5.67455300 0.00000000 0.00000000 1.35500600 6.67442900 0.00000000 0.58928000 0.19439200 1.79952600" Properties=species:S:1:pos:R:3:velocities:R:3:dft_forces:R:3:Z:I:1
Al         4.44289940       2.75154784       0.64257173         0.00000000       0.00000000       0.00000000         0.34279300      -0.67231900      -0.03020200         13
Al         6.13085179       0.10169791       1.21653260         0.00000000       0.00000000       0.00000000        -0.34279300       0.67231900       0.03020200         13
